LAMMPS data file via write_data, version 4 Feb 2025, timestep = 22080001, units = real

420 atoms
3 atom types

-6.991740694938642 56.99174069493861 xlo xhi
-6.991740694938642 56.99174069493861 ylo yhi
-3.495870347469321 28.495870347469307 zlo zhi

Masses

1 1.008
2 12.0107
3 15.9994

Atoms # charge

299 3 -0.08125181564512027 24.237183622402306 4.144295267441036 3.129124010729245 0 0 0
52 2 -0.2730232828536145 10.296568665205527 -5.869934210856704 5.524325447230892 0 0 0
54 1 0.188963598711989 9.967783313797206 -6.701622902895392 4.89225453159815 0 0 0
53 1 0.1386938850303122 11.289855862339213 -5.5189192208046425 5.252060090524225 0 0 0
55 1 0.09929912357607643 9.617518478697335 -5.055768132285525 5.30415569781826 0 0 0
56 2 -0.06687694818023202 10.110094975494285 -6.337751389592687 7.0142303942211175 0 0 0
57 1 0.06496646962663011 10.292286585575262 -5.546985178032044 7.74506624543851 0 0 0
58 1 0.05514366132750827 9.037476699933453 -6.6705354219402855 7.193428384113972 0 0 0
120 1 0.1021713175290126 21.116803351054305 -3.0220584222810727 12.145910722093523 0 0 0
118 1 0.08548048000101424 19.643429241433633 -1.0460878987351823 11.95442565083587 0 0 0
98 3 -0.110919518739742 15.569290373443984 1.024231481578953 11.47648696097681 0 0 0
99 3 -0.0860698761950548 14.84120672898263 1.996727762584591 11.336229974934959 0 0 0
47 1 0.0770875917002455 17.368448482256348 9.943295475511576 8.552864753239334 0 0 0
40 1 0.07406599854033255 16.039973646542713 9.923797734973242 10.602960734663581 0 0 0
144 2 -0.09382249860693317 16.89150448282593 10.384744547857938 11.10064623218179 0 0 0
147 2 -0.1151534760294783 18.21163901739811 9.681344605346855 10.566486103936665 0 0 0
146 1 0.07236092644221015 16.896122595008794 11.464353078996087 10.845163416411095 0 0 0
149 1 0.07351700439086571 18.165862004094485 8.574851540495116 10.664730289516616 0 0 0
150 2 -0.1019592308230325 18.305765818158804 10.05188239273376 9.047325583393556 0 0 0
148 1 0.07657704032278581 19.082052609363764 10.047347908201836 11.070109182704103 0 0 0
156 1 0.0948786376822507 18.79303390110103 7.9406819625208325 8.47792192384363 0 0 0
155 1 0.09641946712800449 20.187294742444227 8.912285550321014 9.124857453265752 0 0 0
151 1 0.07392632225212523 18.677701690233164 11.08750243701655 8.921446213517017 0 0 0
153 2 -0.212542087727371 19.29047340872193 8.940467488143762 8.503253751891261 0 0 0
154 1 0.09922971149032409 19.626889610467597 9.217084613934563 7.471877065234336 0 0 0
125 1 0.09635842463558195 -0.9436260931351637 -5.958536621119444 15.675284294702156 1 0 0
234 1 0.07122296099818914 -0.4560593507146411 -6.385835253536999 13.339849737425414 0 1 0
241 2 -0.2593720582934826 3.7119494112435447 -5.949173692317793 13.8052551808122 0 1 1
242 1 0.1022972185943826 4.296920847663399 -5.553249590734783 12.99353444162243 0 1 1
244 1 0.1580163927854583 4.336533702862756 -6.659347304844734 14.32175485697342 0 1 1
239 1 0.06912782079170517 1.8654959180959878 -6.069340363828942 12.54105115966075 0 1 1
238 2 -0.08486830863042749 2.3670802574220513 -6.650476263990881 13.294408407869177 0 1 0
243 1 0.1306747472079152 3.453805658306452 -5.158703821573696 14.502770275732065 0 1 1
236 1 0.09905159172247624 1.450191932695983 -5.937751579806007 15.213360123691857 0 1 1
235 2 -0.1500658999650397 1.4168253753488553 -6.815953747280915 14.548080156769313 0 1 0
300 3 -0.1392866331394832 3.5998111051194286 -6.849140087658981 17.004670780027226 0 1 1
119 2 -0.2349136010179977 20.7347950311835 -2.654625748868484 13.080238218826214 0 0 0
115 1 0.07482630890470446 18.644214844774325 -1.5350776119202205 14.276837447917924 0 0 0
121 1 0.1090532393293553 21.54937844593677 -2.6611786042491943 13.730680022489487 0 0 0
122 1 0.1008208580145682 19.8995482759103 -3.3189564835909326 13.355977699010534 0 0 0
113 2 -0.1102088441611001 19.38405365712147 -0.802676540461956 14.103797145741218 0 0 0
114 1 0.06981201510066103 19.969985950970056 -0.8059486545207051 15.03220390324589 0 0 0
116 2 -0.1029537602429665 20.217882829856897 -1.1789138155462968 12.851604534334033 0 0 0
310 3 -0.07976346910662782 -3.745366885389836 1.5049059120882706 18.250320452479645 0 1 -1
311 3 -0.0801924914035152 -3.2580112769726743 0.7926132593946527 19.181506389088472 0 1 -1
107 1 0.09663575369329638 17.239524131021863 -0.3494563078930941 15.497974455538547 0 0 0
109 1 0.1267569618259789 16.792462998087036 1.3202966002165635 15.11520214983587 0 0 0
106 2 -0.2227401696358275 17.634571408752628 0.6446914922114502 15.264815119672125 0 0 0
111 1 0.1268145385430351 18.023534344521323 0.6206876030049973 13.101756940201405 0 0 0
108 1 0.09338173004265524 18.156254745294135 0.974070471878953 16.154714698385124 0 0 0
110 2 -0.123297009485121 18.60115106909512 0.572071974006878 14.01278565584779 0 0 0
117 1 0.07207425186541271 21.093283044272212 -0.5269333266955867 12.732646478643645 0 0 0
112 1 0.08334571254016857 19.248804073286752 1.4255160263107527 13.965411497690262 0 0 0
141 1 0.09194304763150471 16.430745027743264 9.096122310791849 12.91529221708739 0 0 0
143 1 0.09701376327668471 15.936669976902827 10.812444026783432 13.067096519504886 0 0 0
140 2 -0.2120081109734605 16.72924150106064 10.161699920728104 12.64520118718529 0 0 0
142 1 0.1002704927140902 17.62061396606738 10.374967087717742 13.19203423987409 0 0 0
85 1 0.083279530112743 -5.7982098368839665 24.33610916133659 17.842992086010227 0 0 -1
82 2 -0.1904303379528899 -6.37488200526387 24.559620792916473 18.754810761823954 0 0 -1
79 2 -0.1265293784792272 -5.480046921099074 24.823507877920953 20.009610412259864 0 0 -1
75 1 0.0677730731009826 -3.9483518783330394 22.629137847215503 19.022509933594765 0 0 0
73 2 -0.09999890443679103 -3.715533441781446 22.963576970270193 20.00729603586245 0 0 0
74 1 0.08135756424010732 -3.0057378770298806 23.758773730966098 19.929597325678866 0 0 0
72 1 0.1132287340269484 -2.5305152182831954 21.148557258749367 20.320276916972375 0 0 0
403 3 -0.08025159072965504 2.419997843075068 22.584090248122873 14.188190884899878 1 0 -1
404 3 -0.07998024471415272 3.2951969872948332 22.986161122654178 15.006794037281669 1 0 -1
209 3 -0.07979922369396433 1.669557084573162 8.636246696574238 20.555860360675503 1 0 0
210 3 -0.07981549333999219 1.891998314693522 8.323361022038103 21.76488671094168 1 0 0
7 1 0.07219635655085199 9.42007398499483 17.40736589985447 22.987011317228923 0 0 0
4 1 0.103855377336728 8.478463895129307 16.098126402190374 24.869404557102097 0 0 0
5 2 -0.09579599082506275 10.107286770439867 17.068091828236554 23.751218705574864 0 0 0
8 2 -0.1107926833009983 11.086112583726472 18.221331796598353 24.163532592665273 0 0 0
1 2 -0.2232244674352085 9.308782015622086 16.776447078424447 25.089710650473723 0 0 0
3 1 0.09438724860253715 8.954802768432623 17.66767949131384 25.607439286212752 0 0 0
2 1 0.10196932020711 9.924482358419922 16.318850808036007 25.81626027551912 0 0 0
6 1 0.07244135305925074 10.583846280857077 16.17321621767373 23.34584053865975 0 0 0
10 1 0.07643861459547018 11.951522787053978 17.818619254120144 24.680678017120425 0 0 0
13 1 0.07486152743153122 12.177294451743094 18.099752374636346 22.268601965213485 0 0 0
71 1 0.1050589217531404 -3.9089236789065738 21.249483748723577 21.419834000905396 0 0 0
100 3 -0.1297590726973386 -2.162847229431848 23.72829538677065 24.791928018465157 0 0 0
76 2 -0.1182285223908695 -4.994068002661633 23.4747133402799 20.73511307336628 0 0 -1
77 1 0.07355031624297426 -5.792909953435416 22.74701534318066 20.74200809279853 0 0 -1
78 1 0.08916469984760983 -4.817805814235749 23.756421289322386 21.79413652940176 0 0 -1
70 1 0.1425088143041786 -2.4990573584601226 22.24550475209397 21.793111272314228 0 0 0
69 2 -0.2437273147225282 -3.0997425986316727 21.80666201061764 20.940281697772534 0 0 0
101 3 -0.1197868232217246 -0.9980125217188318 24.079374902576443 24.555441867498523 0 0 0
12 1 0.07200697972769253 10.72770315717484 18.966038374121688 22.144083541594963 0 0 0
9 1 0.07013100190345042 10.579762916215188 18.975841477512294 24.784693319510264 0 0 0
11 2 -0.09910107061231577 11.568467065148678 18.818624002086164 22.796925372421246 0 0 0
16 1 0.09354688699604766 11.655366714591441 20.828013465851775 23.707461892662028 0 0 0
17 1 0.09729213516636198 13.23009502277024 19.984672888705195 23.783786053127724 0 0 0
15 1 0.09838236272462555 12.698050307271757 20.675993265591153 22.24185576254628 0 0 0
14 2 -0.2091788958485458 12.348805147592365 20.147516453649054 23.162168439502462 0 0 0
283 2 -0.1225421500983026 -3.7216779166747584 42.08896742423281 0.45048463095680225 0 0 1
284 1 0.1289311074304714 -3.2831510485796356 42.853158019235885 1.1145212707918093 0 0 1
280 1 0.08933604767992402 -5.771599729334439 42.140665685245054 1.30333981651754 0 0 1
279 2 -0.2273389864084192 -5.011496301061097 41.43471329366472 1.1992677091548636 0 0 1
285 1 0.1072545473077307 -2.9123854871743626 41.381563838318925 0.30405890229660626 0 0 1
282 1 0.1419231797064208 -4.792430453912204 41.10432530103664 2.19476447213572 0 0 1
305 3 -0.09454445399972131 -1.4519411480316862 41.16756546903851 3.701527410084016 0 0 0
304 3 -0.1362751860874314 -1.8115107655025273 42.191780473226224 3.0335608291452063 0 0 0
281 1 0.08143173025135261 -5.461160586900711 40.57347419874743 0.6822703787153301 0 0 1
288 1 0.092038730251378 -4.655363857064589 43.74678321566376 -0.6534888840170616 0 0 0
286 2 -0.116270555059518 -4.077097209496223 42.82627914334672 -0.8802343548152449 0 0 0
287 1 0.09077143040553941 -4.731590814925976 42.21079614624841 -1.4772345757037981 0 0 0
289 2 -0.1090486169827921 -2.7584541758250145 43.08254011099294 -1.6476879185677518 0 0 0
294 1 0.08175096833805073 -2.4157397878389375 40.844841895161316 -2.0357812268136954 0 0 0
292 2 -0.2066949684221915 -2.4917251372949085 41.821631138397166 -2.607367445072165 0 0 0
295 1 0.1128672295028 -3.2427267071528054 41.70615303505995 -3.387400095468678 0 0 0
290 1 0.08132058090703213 -1.9221343214481426 43.15227979583837 -0.9468469450536419 0 0 0
293 1 0.09222257290508803 -1.5674176554622292 41.90413429548792 -3.1475838418216378 0 0 0
291 1 0.1163209335342368 -2.8502839205508437 44.01502227154894 -2.1599306637032347 0 0 1
407 3 -0.1559880532929699 -5.388467932677038 44.80612894022597 -3.3168056687333314 1 0 1
307 3 -0.07861572740306985 6.685225848455847 47.10934654553093 -2.9170338343616766 0 0 0
306 3 -0.08154203088030679 6.077229672253081 46.34118784878541 -2.1654259015933413 0 0 0
96 3 -0.1646565868391955 10.823676738646576 55.387912274011754 4.4980052064057965 0 -1 0
97 3 -0.08851634075559098 11.028146945864474 54.61682912632508 3.515601199601024 0 -1 0
265 1 0.09807014997467969 13.65957912122144 26.23939543327922 11.527821024178836 0 0 0
263 1 0.0967647059398084 14.682747631874708 27.568165740706178 11.071740678125689 0 0 0
262 2 -0.2130224104704826 14.397154007301133 26.98571361288802 11.922924781439932 0 0 0
264 1 0.09663075419563683 15.301873000546777 26.45252985441506 12.226842325074797 0 0 0
271 1 0.07114964759262496 15.476841676999932 29.439837403033422 12.465343221932022 0 0 0
349 1 0.08788083265694414 3.4599482997653475 47.113763430357345 4.77984013676936 0 0 1
21 1 0.0862992001927238 0.717880553205493 46.5994757844458 6.578538816341387 0 -1 0
124 1 0.09377022548728908 1.8590534544127522 45.57095285822379 5.60440100370033 0 -1 0
123 2 -0.2143191684021188 1.4201701845418455 45.71314325096438 6.591629422640308 0 -1 0
20 1 0.1175760156335351 0.7555669630256849 44.86408386162501 6.773843022195823 0 -1 0
337 2 -0.09487119584193851 2.517382226294636 45.876048297222155 7.6863505411347575 0 0 0
339 1 0.06937646682567093 3.3005241876175297 45.115701442701976 7.694835784672215 0 0 0
340 2 -0.1084771150712446 3.1810826141253425 47.27584834104791 7.3483485027306426 0 0 0
341 1 0.06558154856707904 2.459144018414399 47.89546010407531 6.807127173925041 0 0 1
346 2 -0.2069637734957686 4.29375273801347 46.60331211162709 5.214439070365632 0 0 1
348 1 0.07549766810946619 4.027609976855652 45.492445992511286 5.220284172204508 0 0 1
338 1 0.0711936096496458 2.048978220520727 45.82116547216393 8.675352389310849 0 0 0
132 1 0.08888186130748793 3.292552810213053 47.8852915763481 8.276980798649848 0 -1 0
343 2 -0.1082445487505397 4.5875722023688095 47.12848734143433 6.658762366198786 0 0 0
345 1 0.1023452262447314 5.138405204382378 48.088489498486936 6.61781216653802 0 0 0
344 1 0.08825916800597319 5.207360902419319 46.370768902671415 7.1549828535484785 0 0 1
347 1 0.1006687463579222 5.093892506604178 46.668005573665724 4.507739888085483 0 0 1
406 3 -0.09162718385815283 8.026936966521761 50.242181176164955 10.430090007494496 0 0 1
405 3 -0.09883284605023016 7.00842724360264 49.941194960580276 9.770175063447654 0 0 1
62 2 -0.0945071118754993 10.256434320666543 55.37723100504441 8.194436327615554 0 -1 0
66 1 0.1161612495263719 10.752495198818451 53.26808289897081 8.926781880544176 0 -1 0
68 1 0.1116377441682364 11.747881099662465 54.54516190261704 9.5689192857523 0 -1 0
65 2 -0.2367806455192837 11.251553888330932 54.22652679665526 8.626551486166314 0 -1 0
64 1 0.06297284595037425 9.900446459805163 55.73449962575203 9.172594623008347 0 -1 0
63 1 0.1032151314618574 9.44911844085862 55.02138586469012 7.631801607929621 0 -1 0
59 2 -0.1791664703116774 11.10534901333655 56.49936200910181 7.436164976508268 0 -1 0
67 1 0.1381024956794408 11.98452011956823 53.908359028920756 7.861324260178389 0 -1 0
60 1 0.1722442668050754 11.697704124568968 56.12427824866585 6.647416976813812 0 -1 0
61 1 0.1312162090750353 11.862067311798704 56.92333189608489 8.059847505275153 0 -1 0
313 3 -0.107692816130633 14.848546676128265 56.409810980878774 7.5718276243787805 0 0 0
312 3 -0.1125115011780848 14.676032869593634 56.97299455258592 8.699884387155018 0 0 0
80 1 0.1073871521664276 -4.6386597406822485 25.421534280261497 19.7348891815179 0 0 -1
275 2 -0.2362584046939306 15.490070590221393 31.001944044809093 14.61590514453512 0 0 0
277 1 0.09991097021498567 16.479641851830806 30.547698590449734 14.621806855129051 0 0 0
273 1 0.06986314080670077 14.079255139769227 29.324875575110596 15.202399626936916 0 0 0
272 2 -0.08828532963745714 14.39144330502101 29.91450430855066 14.338237877904447 0 0 0
266 2 -0.09329516825089794 13.878018228266988 27.93127611002039 13.048709308554354 0 0 0
268 1 0.07275348687379139 13.591804582683846 27.39598869707458 13.950028280166073 0 0 0
269 2 -0.1104864549683478 15.081743731226464 28.917632915258537 13.333686105583656 0 0 0
270 1 0.06835233936831407 15.937953930944278 28.374495699813906 13.77115140126358 0 0 0
274 1 0.06654777392867842 13.45384419857453 30.40841124825186 13.99851858545922 0 0 0
267 1 0.07200917736511801 12.973578536961316 28.461369312609037 12.756812310373665 0 0 0
278 1 0.109769368228716 15.454782627993996 31.711819140204327 13.856438146656188 0 0 0
276 1 0.1082694118309984 15.330588273958647 31.47310092564598 15.575220557517856 0 0 0
389 1 0.1146541230143417 16.501365500920564 41.120360838040966 19.291402290398324 0 0 0
392 1 0.1061781133768755 18.581576264257446 41.05309528372405 20.477591362357604 0 0 -1
390 1 0.09336601288538927 16.57931486775082 42.81253345911298 18.993605592757643 0 0 0
388 2 -0.1213916978461248 16.799424899105833 42.070518563597425 19.701759824753758 0 0 0
391 2 -0.1244702449737053 18.29202576371217 42.06404713907286 20.22017732947692 0 0 -1
393 1 0.0650912707226545 18.925362098672284 42.396525167501395 19.37838571249523 0 0 -1
419 3 -0.08226981651862553 -3.105629112118201 46.826493619224046 19.664666849426247 1 0 0
89 3 -0.1159515205627867 13.98725968459004 45.51648889464651 20.35448764239096 0 -1 -1
126 1 0.09898047329430701 -1.873778677283509 56.57149415321776 15.29746726872818 1 -1 0
18 2 -0.228067256408599 -0.8528629326070991 56.97440249715201 15.36720929782787 0 -1 0
232 2 -0.09288158926746283 -0.06438177987030969 56.862609984908666 14.023100052168655 0 0 0
19 1 0.1157352156760319 -0.35679409680841445 56.46810759786495 16.163649568326438 0 -1 0
240 1 0.06905510338373894 2.615838698465998 56.323999462618104 12.84603484772876 0 0 0
301 3 -0.1010674745281295 3.898803210945628 55.918641194461415 17.345287441779053 0 0 1
27 1 0.1373556985723625 1.7880663717703786 56.380390476082795 15.14204646033237 0 -1 0
233 1 0.07134101610814109 -0.11433630284499063 55.88057647792243 13.532309775462178 0 0 0
152 1 0.06729414850375151 -4.292414874290801 29.122196983263535 27.7513248803086 1 0 0
46 1 0.09425570271881817 -5.280992259305602 29.437793748598075 26.378158287136063 0 0 0
42 2 -0.1278011876005843 -4.0091402458983385 27.690076147630442 26.025981604297282 0 0 0
39 2 -0.1172284828972433 -2.969734562806451 28.585306217253468 25.227936368391646 0 0 0
37 1 0.1544111286746566 -1.8620618040940364 26.696009026611925 24.96533185136562 0 0 0
35 2 -0.2715902359710303 -2.0663415674574974 27.61378508239646 24.390105159336763 0 0 0
145 1 0.08609054533276225 -2.373045501346666 29.16486941284355 25.968894814203917 1 0 0
197 3 -0.1488920835329271 -4.033320764569759 28.13388258060671 21.824171485104795 1 0 0
38 1 0.1773622276888694 -2.5423636415031297 27.318809834606483 23.47638356279135 0 0 0
41 1 0.1450741196642154 -3.456210554663575 29.33961529864711 24.62263811596187 0 0 0
36 1 0.1273247260029224 -1.0991068837245814 28.13252163450423 24.102696577286185 0 0 0
198 3 -0.1066844147518742 -5.253069095967154 28.456120125875827 21.666626055245423 1 0 0
45 2 -0.103900783431443 -4.861751807848863 28.641019921251093 26.957818109611495 0 0 0
43 1 0.1073541830473767 -4.659559739105658 27.148294435839723 25.33787123702272 0 0 0
44 1 0.07827176534842198 -3.4409873679179865 26.922781848807205 26.601208382053702 0 0 0
81 1 0.1220905212180848 -6.001634089286252 25.40997278429637 20.787917101493544 0 0 0
48 2 -0.2583898118543759 -6.031514756970497 27.725707034648288 27.39395406510363 0 0 0
51 1 0.1190874657975954 -5.733957561172994 26.695914289248655 27.401242994490715 0 0 0
50 1 0.1592781760404382 -6.904789821061616 27.87717456987803 26.697834978611798 0 0 0
49 1 0.11027307182869 -6.384814516376591 28.010272661901638 28.369617280732445 0 0 0
103 3 -0.1007925843349633 -3.1687334104351077 32.85459018534667 24.56643563797734 0 0 -1
102 3 -0.08789942308698212 -1.9703412153985145 33.21624541036275 24.490160676806532 0 0 -1
408 3 -0.1749500031652005 -5.342921700609556 43.91988137157205 27.746927620335924 1 0 0
402 3 -0.08793131171801533 14.216012179074323 38.304441716989125 21.10979241287253 0 0 0
396 1 0.07314403086659774 17.91727204617238 43.973088980985956 21.138465765846 0 0 0
401 3 -0.1115240489037565 15.33758050126599 38.571643377252 20.578470164112023 0 0 0
386 1 0.1577701354680575 14.79819875876105 42.088894207611034 20.857578653248915 0 0 0
384 2 -0.2766921665813091 15.883412212322835 42.306273090623435 20.94388461192202 0 0 0
385 1 0.1383289702387985 15.882824482986202 43.34547513100715 21.242853690673282 0 0 0
387 1 0.1684825371289099 16.268229884745555 41.59467009890917 21.682545340954945 0 0 0
395 1 0.1085419821276705 17.777080765684364 42.71158994009551 22.28115065319656 0 0 -1
409 3 -0.08606090559065849 17.545164068936764 40.00445508617131 24.247545971930798 0 0 -1
410 3 -0.135433669446599 18.198060210168112 41.078016627248196 24.147912552345318 0 0 -1
394 2 -0.104304715552305 18.40373748846324 43.060716583722666 21.464167750303126 0 0 -1
398 1 0.08988344381045874 20.504538292961307 43.68003949500811 21.088581446153565 0 0 -1
399 1 0.124714609961013 19.918786902051934 43.95847466329262 22.711000511273102 0 0 -1
400 1 0.1301625404839813 20.36076370073044 42.28686488537441 22.18828578449704 0 0 -1
397 2 -0.2374393437986352 19.90212638983227 43.2749252610069 21.922918659351136 0 0 -1
332 1 0.1243497851416089 -5.325210590947728 47.80451070901746 23.147711112744133 1 0 0
420 3 -0.1361500254320192 -3.785542669302669 46.85533878907404 20.74219745863067 1 0 0
331 1 0.1076533042555929 -6.101718575498678 47.635363777940526 24.663498537598283 1 0 0
319 1 0.08856709414748395 -1.579429721635785 46.605791789840225 26.179420063112875 1 0 0
320 2 -0.1216298423422683 -3.587925116118149 46.07367530431934 25.337972089738177 1 0 0
318 1 0.09535110170456472 -1.8475170841388229 47.338116580009626 24.660319475673504 1 0 0
327 1 0.07217899778562728 -6.125149146162761 45.26679600431852 24.818445595542595 1 0 0
326 2 -0.09092492705158876 -5.597973468431552 45.6386975739478 23.898837311747496 1 0 0
329 2 -0.2182692967994457 -6.025266337930762 47.13034738889302 23.719775099299266 1 0 0
322 1 0.09361641149948904 -4.025080679274776 46.98179215379427 25.55958662117605 1 0 0
324 1 0.1417368879552274 -3.692714038050049 45.86862801476274 23.151219334087557 1 0 0
321 1 0.13205697494633 -3.771662143287911 45.42766028961215 26.180966630129205 1 0 0
328 1 0.07116925815716432 -5.946675243874455 45.084311683649815 23.06490374471516 1 0 0
323 2 -0.1371243903340591 -4.034200662158753 45.374243431835104 24.038693872498904 1 0 0
316 2 -0.2098111991112768 -2.0383268560879975 46.39573925149003 25.23310896603876 1 0 0
325 1 0.08349853318679007 -3.771666388433745 44.30836462056613 23.940816355399036 1 0 0
317 1 0.0972654929027558 -1.4057406557893666 45.60796204721145 24.79515505516318 1 0 0
88 3 -0.09248181131981631 13.527148287150467 45.987919707459994 21.426388188145804 0 -1 -1
181 2 -0.1073023264058209 37.051425115839784 -1.5266997409947303 -0.28510489327045097 0 0 0
186 1 0.09579878361638326 37.12699664093262 -3.0307651137544176 1.3626176777804115 0 0 1
184 2 -0.126723927557554 37.010163815710314 -1.96188839566482 1.2363929967368534 0 0 0
185 1 0.1425680701122247 37.755864263626606 -1.478707850994704 1.8949230580840384 0 0 0
189 1 0.09993313195763412 35.59607518860535 -1.8177943804179044 2.8189095311574253 0 0 0
187 2 -0.2495276132594623 35.65524684817424 -1.4376055735072564 1.8003956670355903 0 0 0
182 1 0.1060996609510957 36.0386878210232 -1.4212596223489822 -0.7260398522336322 0 0 0
188 1 0.1209558864324319 34.793041749925294 -1.8084044219149495 1.285305090263205 0 0 0
183 1 0.07651337026288217 37.61325672592446 -2.2691083698981904 -0.9009140131909095 0 0 0
175 1 0.1162560754657033 38.66314767324549 -0.7525864232844519 -2.259793759045355 0 0 1
204 3 -0.1326488505050835 39.95180930754138 -1.6018072283509266 2.451693650879771 0 0 1
203 3 -0.1178114640147867 40.43242502269454 -1.3433774651318968 1.3053823382927332 0 0 1
201 3 -0.08060055495451918 48.28960904115219 -6.098100270084999 -0.4128903507410202 0 0 1
202 3 -0.0800008752299603 47.187212117756154 -6.321974086249419 -0.9975082528115804 0 0 1
207 3 -0.09883998595750604 47.74639010897492 -0.882328275112342 2.2037134716357363 0 0 0
173 1 0.1487010563299061 46.48843900969603 -3.25998438564653 4.429367253122505 0 0 1
303 3 -0.07270738105561558 28.25134937907678 1.8362705481135357 -3.0224891882765763 0 1 0
298 3 -0.07688722964507744 25.335781483023055 3.959299093563704 2.5248434192229166 0 0 0
190 1 0.1356225465483212 35.59977148246779 -0.3552126289263091 1.7946375208624712 0 0 0
180 1 0.1394882444699151 37.2150280363267 0.6045605038127881 0.11229458152941874 0 0 1
191 3 -0.1101263400572571 34.38658907129236 0.9390471807469156 -1.3270398481691545 0 0 1
192 3 -0.1452849959952504 35.08985040853466 1.4542559382065043 -0.3897049621641626 0 0 1
176 1 0.1296990387331767 37.40592711300287 0.3698189482584162 -2.4619299850993817 0 0 1
178 2 -0.1475593728751673 37.824908962160166 -0.14970006081993414 -0.31331744712718956 0 0 1
179 1 0.1601770321762644 38.79372489773675 -0.14811378424632782 0.20784849983959308 0 0 1
174 2 -0.2488938586493561 38.268507357376734 0.15059510956878785 -1.805554928652644 0 0 1
177 1 0.1529406395055813 38.99207776641835 0.9350419387093707 -1.9236330879811663 0 0 1
104 3 -0.09450168738604081 42.18849545125977 0.5750684234233097 -1.9846972281095896 0 0 0
105 3 -0.08552217680450366 42.770056194040414 1.559313272008712 -2.471546017292222 0 0 0
208 3 -0.09194884613335041 47.14754745922584 0.21463109292276705 2.3579481010329593 0 0 0
91 3 -0.1202607718098821 55.661753069912024 11.338657748348208 1.6627617488972364 -1 0 1
90 3 -0.1163622444237808 56.47526256416926 12.134298124878953 1.0647262514589277 -1 0 1
30 1 0.06863616677426215 52.09103007169682 15.90174458165749 0.4322473866126031 -1 0 0
28 2 -0.08371443977638778 52.97916928386529 15.378481232924692 0.2022892333640014 -1 0 0
25 2 -0.1513531188660348 52.823522956539826 13.840988235385527 0.5491766510471905 -1 0 0
22 2 -0.08782158928441966 52.79002121274032 13.751697563941011 2.12096113348091 -1 0 0
31 2 -0.2255266738972216 53.50031564884835 15.650089951492227 -1.2662297064271955 -1 0 1
24 1 0.06113056762182167 51.91283654797709 14.30419464645324 2.5332933166951843 -1 0 0
336 1 0.09692257841552385 53.92121540121699 14.248730639666341 4.00003724985776 0 0 0
228 2 -0.2376515403477958 54.07822340023827 14.250799827100984 2.8810011634468875 -1 0 0
29 1 0.06505367548433026 53.652263361755466 15.791386380776167 0.9100679122131563 -1 0 1
26 1 0.137745495054135 53.59415941270241 13.233012227121186 0.20418461464158222 -1 0 1
229 1 0.1753321748005913 54.967827529949574 13.596899377035626 2.6998489994977017 -1 0 0
335 1 0.09285707548112833 54.32093944394602 15.265044280999735 2.5622825838403456 0 0 0
237 1 0.08334910299858179 51.88676489438381 13.44462455108549 0.1838890601395904 -1 0 0
23 1 0.09271823323589304 52.61537444753153 12.747585736862614 2.4751243457657157 -1 0 0
32 1 0.1072476719078888 54.13877517372191 14.854956473463094 -1.6389053844208221 -1 0 1
33 1 0.1000719667651329 52.713725480197155 15.668838919402692 -1.9884857058362777 -1 0 1
34 1 0.09802980986229054 54.07961962544035 16.596787656011355 -1.3433653541958188 -1 0 1
315 3 -0.07912141676334725 26.81058494046963 19.794109660715844 -3.0661085233291896 0 0 1
195 3 -0.09247374354726709 32.172049878025874 24.69040677113936 3.4717218926199367 0 0 1
172 1 0.1012330215138094 45.95486735538112 -4.375608464129364 5.728844707629316 0 0 1
171 1 0.1152268938118165 47.623677808077 -4.419235826962318 5.201897234930218 0 0 1
168 1 0.1142820237653873 47.46866827482787 -2.9935788411579978 7.2737142248005675 0 0 1
95 3 -0.1326825572282833 48.73318959168432 -1.5173242406112104 9.943155426423067 -1 0 0
94 3 -0.08751862956704159 49.49638782494124 -2.443036265319141 10.354175832367702 -1 0 0
169 1 0.1073823098082628 47.972046057476376 -2.1071616306502428 5.928854183885981 0 0 1
167 2 -0.1383113151767599 47.151411222875154 -2.5975763561892906 6.37644865324264 0 0 1
170 2 -0.2510129088424456 46.774181097054296 -3.7598284773615043 5.357476019000343 0 0 1
166 1 0.1034336790711465 45.562186503822424 -1.145639025770416 5.676807030267135 0 0 1
164 2 -0.1234907611348771 45.98183964206605 -1.5482564782625596 6.607337160821425 0 0 1
165 1 0.0715937638011258 45.07423973387147 -2.0197309059064494 7.008844863991074 0 0 1
163 1 0.1355717439803311 46.96824239403576 -0.9757949620280861 8.393424421499027 0 0 1
162 1 0.09883348466797533 47.626471890543996 -0.09144222520636713 7.095282191093425 0 0 1
161 2 -0.1227722465789481 46.65766679173297 -0.4261222480150151 7.495707876991158 0 0 1
158 1 0.1057721111275743 45.721672496425654 1.560926552438728 7.117734449352987 0 0 1
157 2 -0.223911048835193 45.826932855705465 0.8706386243070767 7.905450656965527 0 0 1
160 1 0.1054470376584398 46.27443357924209 1.4662762059539602 8.75261866967668 0 0 1
159 1 0.09807520591761168 44.81267321745983 0.6402106276982744 8.170636565699075 0 0 1
92 3 -0.07954763957580185 37.07010311768038 7.886556011292402 17.36852229878974 0 0 0
93 3 -0.07954763957580185 36.54328337565788 8.997795787794301 17.605521428074468 0 0 0
83 1 0.0780032428003134 56.84116893572506 23.71240777347531 18.881213745791765 -1 0 -1
302 3 -0.08122035724954021 27.942985139992764 1.3357970361617628 27.849685623938708 0 1 -1
200 3 -0.07245455107844179 28.879167164631255 14.544808970231543 27.003809693064202 0 0 -1
199 3 -0.08139743990234088 28.979743615293025 13.939758250720178 25.850535916673355 0 0 -1
314 3 -0.07336296978867538 27.030829815371092 19.63857292805201 27.69329671236022 0 0 0
196 3 -0.1113529552189495 33.35184279982271 25.04581350409041 3.7280780532334434 0 0 1
194 3 -0.07803323147804339 32.68696846233252 34.09114803132156 1.6526599636163883 0 -1 0
193 3 -0.08822353804797867 32.33283134873104 33.240146139952714 2.508799573260326 0 -1 0
259 1 0.1240671402252338 56.340855658434165 43.37024142182911 -2.475017879758277 -1 0 1
362 1 0.09432430809740922 53.86670207292552 42.77627271734478 -1.9825246863898258 0 0 1
255 2 -0.1283806595794078 54.17868498981216 43.061948259533025 -2.9333920506313182 -1 0 1
260 1 0.1045003853435629 55.694152339121956 41.62489911960698 -2.53704403698326 -1 0 1
258 2 -0.2309693073439724 55.65887604789165 42.60969644258461 -2.9648244201073446 -1 0 1
296 3 -0.1236825340445656 51.93523611341707 46.81945957610726 -1.1279672618006744 -1 0 1
254 1 0.1140322400487739 52.714113446131435 44.714095817712426 -2.988358336217634 -1 0 1
297 3 -0.0776698904129817 52.101913963036814 47.87626350039934 -0.47396454230799856 -1 0 1
253 1 0.131028390838849 54.196579029823134 45.19444056330883 -2.264176683299567 -1 0 1
252 2 -0.1466703411673727 53.78013982998046 44.59509641198378 -3.057887246570993 -1 0 1
230 1 0.09690152059262204 30.635176564920386 30.006015649338842 9.779739673699547 0 0 0
334 1 0.09933187725771289 29.89107602335539 30.440739360488088 8.280930149310633 0 0 0
333 2 -0.2231485723561814 30.75327892682327 30.63734096857172 8.895316775863362 0 0 0
342 1 0.06705713826664597 31.210677573797724 28.369181984052645 7.406627573134065 0 0 0
131 1 0.06572627916348163 32.18066747393303 28.23535421443971 8.847211716211467 0 0 1
130 2 -0.1083114584535158 32.13889541097903 28.760836308635817 7.915388910286911 0 0 0
127 2 -0.1068210904797917 32.091407574531424 30.295901586218257 8.132321805306747 0 0 0
129 1 0.07692818221576395 32.91560315677997 30.589568551428272 8.727961411809373 0 0 0
128 1 0.08427426297290962 32.17711880355318 30.784432994880888 7.148474076817434 0 0 0
133 2 -0.1001952912587503 33.42469952869711 28.50148705657319 7.0777964203407695 0 0 0
134 1 0.06698202859773654 34.32222587649841 28.86866958521692 7.633420948466231 0 0 1
135 1 0.08817672529558222 33.390836571783005 29.00487181019949 6.127615838027721 0 0 0
138 1 0.1058582735685946 33.066138526825924 26.44222351151322 7.7615360093799985 0 0 1
136 2 -0.2383059402588199 33.32706206780677 26.964229082047424 6.859182247400776 0 0 1
139 1 0.1405751705317766 32.542023532558034 26.785524846939083 6.035482906291833 0 0 1
137 1 0.1334238381422456 34.236149069445524 26.479393341317056 6.424955705778901 0 0 1
206 3 -0.08041587636392955 47.84802814069869 27.146928781256968 10.990447381514738 0 0 0
205 3 -0.08041587636392955 48.26014631118976 26.155884924671327 10.247128806186188 0 0 0
231 1 0.1057931502359439 30.72073159356416 31.692603717219896 9.164726705692146 0 0 0
84 1 0.1013131069699337 56.9247754411283 25.3633400141322 18.444123163802765 -1 0 -1
417 3 -0.08979690308062604 39.43973568506209 41.89720922780016 17.951798805822165 0 0 0
418 3 -0.08530447827680859 38.69002365613268 41.312908265200775 17.098833147371675 0 0 0
356 1 0.06993085379277057 36.469872852948164 48.60764877612424 16.262057824841005 0 0 0
363 2 -0.2206221735056886 34.39927571381156 46.49047648274489 19.473631092827944 0 0 0
365 1 0.08804751499614413 33.78916526994508 45.94428786734487 18.737587852231243 0 0 0
358 1 0.08060753814541502 35.79700514774681 46.38434492203375 17.223316578781393 0 0 0
257 1 0.1133529350605229 35.584250236024666 48.38173087008368 19.518237061365866 0 0 0
360 2 -0.1171476635845468 35.14840744685871 47.70950189316601 18.813664372850727 0 0 0
359 1 0.1015179673277311 36.96643624062799 46.571455879014856 18.51537642534733 0 0 0
354 2 -0.09576169592485698 37.001518215326165 48.27730148324463 17.141937128141368 0 0 0
357 2 -0.1270842380312281 36.25846621299728 47.09426232288359 17.897263779299344 0 0 0
361 1 0.07526189583295805 34.42907132155938 48.29904768460178 18.285448610736346 0 0 0
250 1 0.07713701390669235 37.10031034797838 49.151823125532246 17.7512884719851 0 0 0
366 1 0.1183408224033642 35.073619887911285 45.80712538973248 19.999030379244616 0 0 0
364 1 0.1073257222759683 33.69594981971212 46.79357091274813 20.219948576741924 0 0 0
353 1 0.09950711582853075 39.0391250967567 48.26137578571173 16.234084058303768 0 0 0
351 1 0.1124969621647199 38.94887381755572 47.35893634205761 17.659235253911877 0 0 0
350 2 -0.2366151887018052 38.36909115143852 47.58157848468692 16.759621859250828 0 0 0
352 1 0.1132280135634225 38.257137183929316 46.67714076971577 16.158180489011798 0 0 0
381 1 0.09591968680861362 53.63879909897092 44.259772977620855 19.563067340496588 0 0 0
87 3 -0.1204057910950468 54.94681283947131 27.197233862516093 25.4031328581521 -1 0 0
86 3 -0.0842610855293621 54.164998950541985 26.31746724683922 25.00618458781844 -1 0 0
225 1 0.1015489630833399 49.6614593738809 34.840025856288214 22.114666668008457 -1 0 0
222 1 0.07236812977686306 50.28305433966757 35.89520828714363 24.449315836702844 -1 0 0
226 1 0.1120780266721635 50.860637704836485 36.13491793679793 21.85646589950645 -1 0 0
211 2 -0.2341661836445358 54.31561293802456 36.52198859758328 25.488005007782718 -1 0 0
212 1 0.1033855392551095 54.92527990113459 36.05701054507303 24.697704789709512 -1 0 0
216 1 0.07492957010220586 52.74793519591311 35.081451827130486 25.9463478524221 -1 0 0
215 2 -0.1025296359789359 52.79578728498754 36.04021293377095 25.49334678292526 -1 0 0
220 1 0.08962370356886998 53.152115195859494 35.34755575123472 23.476109092470473 -1 0 0
218 2 -0.1428031240818726 52.427254656059304 35.99152922791586 23.985302539026264 -1 0 0
223 1 0.06606380069130501 50.965345619401695 34.288737047409256 24.396337307528913 -1 0 0
227 1 0.09112131262727455 51.327963027997214 34.4844468037082 21.754793552530085 -1 0 0
224 2 -0.2196546026687276 50.65618309672306 35.19199279116663 22.341239634912725 -1 0 0
221 2 -0.09086931672718586 50.9717749839816 35.24682397191147 23.8685503629556 -1 0 0
219 1 0.1230277749998878 52.44397370369159 36.9674404859329 23.57412715616642 -1 0 0
217 1 0.1051513690692013 52.165183632279906 36.775103749644636 26.015238364534756 -1 0 0
213 1 0.1363379673403247 54.46791655472722 37.55769291532114 25.34249324184986 -1 0 0
214 1 0.1047498402125803 54.83678636379328 36.34400224272175 26.424432754862288 -1 0 0
414 3 -0.129252262276132 54.12694613226945 38.684688324947466 21.77332695451241 0 0 0
378 1 0.1381361456084342 53.54451227100568 42.25396330196194 21.07891153984789 0 0 0
413 3 -0.1467334256726022 54.17332280040315 39.83405664299162 21.416692050323988 0 0 0
308 3 -0.1606901424042356 53.599021480252354 40.26104137327736 26.910208727359638 -1 0 0
261 1 0.1257206482652593 56.13743147518783 42.554605656318145 28.067050933323735 -1 0 0
375 1 0.05653246443355023 52.245098567984044 43.484138685035184 22.93097069864765 0 0 0
376 1 0.03447249713227743 53.78343714492505 44.06082179502345 23.54576992056292 0 0 0
374 2 -0.07817324525620824 53.316844948052065 43.233963865440536 22.98444433510263 0 0 0
373 1 0.1282614090849672 52.87671553389864 41.92428131115456 24.730355401453348 0 0 0
369 1 0.1004262178383618 55.691772361845324 41.72252215630556 23.295538259690563 0 0 0
372 1 0.1613909925056459 53.25411891465614 41.00250274763882 23.292407331392326 0 0 0
370 1 0.06214231777001016 55.33249853213978 42.850308198618656 24.595192475598015 0 0 0
368 1 0.122813751948092 55.3001962890059 41.08151201421629 24.834002035414144 0 0 0
367 2 -0.1862865381245566 55.019281500110445 41.8911877892495 24.156641349316477 0 0 0
371 2 -0.1493406006988352 53.491605074018764 41.916227344235644 23.807901099178775 0 0 0
309 3 -0.1485838539492685 52.43657150621692 40.733272369377815 26.896016345649628 -1 0 0
379 1 0.08171530037822738 55.03163769527255 43.04595734105087 21.510430960162015 0 0 0
377 2 -0.1289462848727249 53.92117546434976 43.145290190779555 21.508375429948757 0 0 0
256 1 0.1452545917493341 53.59951068054475 42.527617993643005 28.347729849025097 -1 0 0
416 3 -0.1040526674177961 37.18572511557549 48.581513908182316 22.510817035138913 0 0 0
415 3 -0.09063695050967277 37.93854628028486 47.62940254927243 22.853137964060764 0 0 0
382 1 0.08021607837217365 52.53560630836184 44.80351309870653 20.941121642572885 0 0 0
355 1 0.07427456899675629 55.16059853967208 44.53593329041063 27.13936986502129 0 0 0
246 1 0.07613953253468314 53.18200450986817 45.65238314272478 25.619230078341833 -1 0 0
245 2 -0.2223620796071097 53.0651756396195 45.182300665350354 26.56215913588981 -1 0 0
380 2 -0.1825472076359769 53.57127001756215 44.42999754929241 20.718498321866093 0 0 0
247 1 0.08745355556222204 52.70639201700206 44.195104913815584 26.310104669297605 -1 0 0
251 1 0.1108006119081279 54.756805955645994 46.15658376430332 27.62502397782901 -1 0 0
249 2 -0.09346792930258634 54.3329160026186 45.10007495384568 27.55080487275003 -1 0 0
383 1 0.07103836964455046 54.18583388726934 45.318236001287524 21.05777055625192 0 0 0
412 3 -0.1053874818140889 55.56760606658872 50.182675518389026 27.00623576815187 0 0 0
248 1 0.1173943173939598 52.26141327197234 45.717190314618584 27.09639741391498 -1 0 0
330 1 0.08697640769095241 56.939767656945605 47.24477299363222 23.2101692312059 0 0 0
411 3 -0.07429726891071667 54.94071776055363 50.682356183047695 27.98087500431484 0 0 0

Velocities

299 -0.006868871252048681 -0.003162166624295773 -0.011603945550899337
52 -0.008555157927845789 -0.00285906122789865 -0.005086508471912042
54 -0.009647115225195907 0.02611446200317645 -0.006319712561308504
53 -0.011177854424913319 -0.010728741476952103 0.0036969632695120214
55 -0.024844823837644924 0.007768701710445278 -0.017094574891687215
56 0.0007473630633799534 0.0019181560617065685 -0.0031110071128721073
57 -0.009084974836027451 0.0060591957470334575 0.009467727073171388
58 0.01336178655751664 -0.0022541180683039283 0.03383110868153084
120 -0.005885353872312398 -0.007054138089290495 0.000809743769924372
118 -0.007835191893943464 -0.016988710242422555 -0.0027087921788551254
98 -0.007854557922470798 -0.0032125805084144417 0.00046802183045767994
99 0.005173533650251687 -0.001748936302147897 -0.004315858159067992
47 0.008092418046358213 0.005374809715856372 -0.008999528578144133
40 -0.025780301562943513 0.01979884374022805 -0.01165647900296599
144 0.0014663908270216809 0.004325650859994663 -0.0006881631622867002
147 -0.0016456375139206358 -0.0017096978921938301 -0.000516252048441522
146 0.006235520238662348 0.04019007682885384 -0.009983693662482546
149 -0.0006777576201759061 -0.02262459720077448 -0.009250230755188252
150 0.007416893408834341 0.0010474279809238919 0.0013229248562462237
148 -0.013053864010744707 0.00933399789225323 0.0028888860659202964
156 0.008201343363310352 0.010908134620894685 0.0011548123615671682
155 0.016476448793317656 0.027294118183391496 -0.0019261771063841305
151 -0.011465860683953607 -0.006809525147448701 -0.006183611275313681
153 0.0077737492271263845 0.004632660655070791 0.005369837860633261
154 0.0020960652241265865 -0.015766540898549102 -0.003396790967216616
125 0.0028881292458053866 -0.014477581607052715 -0.014892646121291531
234 -0.017472424883224882 0.017111776333990348 -0.01376938291996547
241 -0.0001945973461711592 -0.007929690332260058 -0.007093628913699362
242 -0.017270965385107286 0.009733367983191694 0.013869613272585592
244 0.0034075510753025437 -5.248892693357973e-05 -0.011920351896368267
239 0.010347005783458449 -0.0018124261169561414 -0.009185230682365448
238 0.005988656477642274 -0.0034351087338504553 0.00020685936542192654
243 0.019917545737689512 0.005587314266402256 0.007691770838328168
236 0.012305952144392018 0.006528245832496925 -0.00706725120481798
235 0.0032842035327937742 -0.0007562691228224464 -0.004325889771084277
300 -0.006453330160443569 0.007526849654102364 0.003928282992839982
119 -0.006257868822916425 0.0027911307801011466 8.368036407271546e-05
115 -0.011943308009994647 0.010755560275236045 0.0026440946907913005
121 0.005405308290939533 -0.0007969005068219366 0.004791952668783206
122 -0.0009254757639742484 -0.00578412106549059 -0.0033179461554193614
113 -0.010801369820395444 0.002270846921318007 0.003961206176824102
114 -0.016041121416805523 0.008353572590967535 -0.00774677074475712
116 -0.0021410119821212536 0.0009097341802399245 -6.096107901293235e-06
310 0.00034234464416607434 0.000919094584244806 -0.004816332913125106
311 -0.010628697286663687 0.009862363326871095 0.00445324206199969
107 0.0032123140245385595 0.014522832711154877 -0.007236250668144623
109 -0.009470227651357774 -0.002986643092115883 -0.009036374421315546
106 -0.0018177803466062556 0.0018120173274106146 0.000566099677595292
111 0.0007327282600978053 -0.00266819237189206 -0.025353240895682083
108 -0.0100822816940221 0.011121634984404044 -0.009570918698825473
110 -0.0019132474141191488 -0.008590866166762712 -0.002873775862003495
117 0.011570296135275033 -0.01511284080970316 0.003568889867305747
112 0.025084686339370697 -0.0084339120839207 0.014189038253473115
141 -0.007448857415535535 -0.006459393611208076 -0.00865036540813521
143 -0.008545175115347229 0.0009947280578913246 -0.00466304501068172
140 -0.0048694287836047985 -0.008159872104793303 -0.005284907058943062
142 0.004264873085185625 -0.019547678761112505 0.004431853063926714
85 0.01109309821706972 -0.02079814587676879 0.00286511055671122
82 -0.0057215476588122335 0.0006491972084510674 0.00010590999405406155
79 0.001061396197499989 -0.004687484069566875 9.958081843191022e-07
75 -0.003469433437543234 0.027761817438501833 -0.01683375748667695
73 -0.007767767243879001 0.002673869867907404 -0.0023043964914747227
74 0.004035076684066201 -0.012232809345807798 -0.0014556478896618535
72 -0.005906450749334871 -0.006549516591015438 0.010723930621478259
403 0.0010722338613102019 0.0007758501436510394 -0.002158124658583092
404 -0.0033353877915287475 -0.009785747265731844 -0.0011516732427811402
209 0.004463721989485341 0.004453266085705338 0.002880619745249809
210 3.536028674458014e-05 -0.005311833056991589 -0.005920167285548631
7 -0.014016871043900992 -0.0016833774426826837 0.01450858898125804
4 0.002482680179783675 0.0035536619879842526 0.0008232703851553104
5 0.005714964508191988 0.00602758902089412 0.0006048925132903274
8 -0.004761530063925467 -0.00014968762516271678 0.007911424528687908
1 -0.004716109960634672 -0.0017169989074700054 0.004399225642883487
3 0.01231937405297941 0.00120375136697487 -0.003934544533212628
2 -0.005905147799631635 0.003892487811932778 -0.0012535537612076986
6 -0.01280066398349482 0.01447248969524505 -0.008973267826347761
10 -0.0042557906897729494 -0.0314207388739642 -0.003551328313305977
13 0.030660405232051616 0.01366846485694531 -0.007982296071369752
71 -0.004408713090539471 0.015501959496247024 0.008091462465102738
100 0.0001826000845273119 0.008316897927564995 -0.006200263869864763
76 -0.0016851565002213614 -0.0018301368082262453 0.0020770738716016095
77 -0.0012374275959846648 0.016683271514296515 -0.0011288232069448006
78 -0.010490334853000799 0.005357885857218438 9.848658666213352e-05
70 0.018676829174043307 0.005863551851490393 -0.0181797674256149
69 -0.0011818666570506825 0.002544778002666424 0.005132473027479409
101 0.0019030555790046555 0.0036525230778573126 -0.006089265497482871
12 -0.0006709980428754462 0.009506703113109163 0.01677465332114138
9 -0.019241548287421608 0.028089171541472828 0.009140372606309111
11 -0.004528423058449405 0.0009171201936854629 0.0045152773250988045
16 0.007202542570273446 0.024524916854163827 -0.00956062599142618
17 -0.0036784987173760254 0.013728474034357618 -0.023955193460781798
15 0.01789390917036203 -0.001808862452729001 -0.009648046484608923
14 0.001893457449691962 0.0038122381563700145 -0.0005935621341385382
283 0.006977243531165123 0.002365821233510387 0.0015360548852371516
284 0.005741035984570363 0.0003281664679907243 -0.021168803630228206
280 -0.018468294668587397 0.03590635733250876 0.004487243157588572
279 0.0034047022004034984 0.004603616702766923 0.0052804118474247584
285 -0.022271435400109715 -0.00011852172746896343 -0.016849320694478972
282 0.014700675127972447 -0.015711932361874358 0.017498815274018115
305 0.005708918810270724 4.296898470389832e-06 -0.0027008489542960394
304 -0.004369657201100808 -0.004482567277501891 -0.0020756788829423504
281 -0.020317185282382726 0.016784725763394584 -0.00643652097541376
288 -0.009398945686141925 -0.019852883558922403 0.01699857976455455
286 -0.00117107322896119 -0.00013259340884119104 0.005342198985485609
287 -0.0186960520443857 0.012874711029775754 -0.0034137266396729324
289 0.0031890215976776493 0.0008152228913126147 -0.002873255346960285
294 0.006608991971934504 -0.008658807184564566 0.0009698927624481758
292 0.00018971707458229704 -0.002565934708074335 -0.00024526739683658233
295 -0.00747338808140885 -0.006224090022109906 -0.019329422843091602
290 -0.0007365247267441526 0.012958961391811399 0.007653614883604245
293 0.004211525704396448 -0.0029945104990581352 0.0003019750273785879
291 -0.009122229840230776 0.0015626692323890466 -0.010291686187543083
407 0.009919804435314282 -0.0028013195784294936 0.0009604921466518724
307 -0.0057960763125399105 -0.0010404102346847828 0.0003881471227118392
306 -0.005097238572180575 0.0035639065450883338 -0.019470648397156873
96 -0.002318484933899329 -0.01225774027454807 -0.0015340180611502193
97 0.0090201010968436 -0.0037367205421213368 -0.0063393242183519445
265 0.019542491876610606 -0.009997149882694822 -0.008279427206214848
263 -0.016512354750974782 0.013021400392233679 0.0007918636711193716
262 0.008153817087297774 -0.007050310686760437 -0.0014405900905200362
264 0.0156807932866728 -0.011569999494255629 -0.005597669689047432
271 -0.006020031924345635 0.01592572694423675 -0.013839062556194447
349 0.0054656003008575985 -0.015568873456023624 0.012226215216881225
21 0.02614674996915027 -0.003072331717637323 -0.0007880869627992308
124 0.001750767438633929 -0.021827712785718427 -0.01278892089396247
123 0.0014385769893420625 0.005571239771740371 0.006377174126578836
20 -0.018868886304946087 0.004705074806687831 0.015834987549701116
337 0.0007752386309855466 -0.007875473878657885 0.007953550147509049
339 0.005066673653158606 0.005148700098540477 -0.007691930180333874
340 -0.0014089355158374839 -0.002402218419542116 0.0025985275970256245
341 -0.00963491335891894 -0.02223287007988549 0.008337152501185609
346 0.0020354757921506534 -0.006059388322815188 -0.0042130718295097505
348 0.0011244089933326107 -0.001004389566388137 -0.010782650697591515
338 -0.007653316318810967 0.003141147392081868 0.015157938734817168
132 0.02236940092502884 0.0028643446696407816 0.0172455085868265
343 -0.00679907224104824 -0.005113063808432913 0.0014716909927621345
345 -0.01491434429482589 0.02051283025593926 -0.0015899229916754851
344 0.01348954547583813 -0.003909271279990398 0.012050992208197674
347 -0.01030393978792887 0.0014200960203104868 -0.01083512512636006
406 -0.003903071642067228 0.0040688863353509925 0.007582159893603777
405 0.0015614397727101983 -0.0002207099316970398 0.00037596200029278433
62 -0.0033567320593459933 0.0017726823612474302 0.00014723313430044124
66 -0.007388001446817595 -0.012823977251298161 0.0032685803825933404
68 0.0008584191391709457 0.0002651797860476382 -0.00462043558996027
65 -0.004316071210249276 -0.0012281586293912453 0.0013478846624084646
64 -0.01938396683529631 -0.006249588972860881 0.008985545205140718
63 -0.004098390290115955 0.005028269370237223 0.01426831997761355
59 -0.0031922314043480262 0.00013341433896802877 0.005072219432877614
67 0.001913100677389757 -0.01851833559162454 0.014797212407530574
60 0.006135111180000875 0.010539634309683467 -0.009774378839848812
61 -0.033904739702916874 0.007651224174737499 -0.001760996717653626
313 0.008877247420532444 -0.0025906428003216898 -0.0075131191064452
312 -3.98421103828004e-05 -0.005749173048518426 -0.006941717739772202
80 -0.02597936555612536 -0.0018433709041091179 0.011469114134305826
275 -0.0063038023443591175 0.0036302342118240045 0.004875186696241966
277 -0.019538374105068493 0.011029495239222463 -0.024899397685350984
273 -0.009401232297144835 0.015066841181526066 0.0066025792511941
272 -0.0026764497508519345 0.00380306245941589 -0.0005413953271327329
266 0.010761706803178542 -0.007745823794822314 0.0008117234106254726
268 0.0033424466389788726 -0.016292848680063768 -0.001292827506268996
269 -0.0010233145168835691 -0.004488221484243952 -0.005071102255280903
270 0.018210199286835628 0.021663163272099814 0.010467585627524867
274 -0.016793716321737942 0.03454449377963887 -0.01923726706069745
267 0.0061142994879585565 -0.025227268161376337 0.010554424120119046
278 0.007666786910400504 0.007032199494830553 -0.018017154669620086
276 -0.03024371084032318 0.02046272559099038 0.00151847908986569
389 0.02482150820470117 -0.01134280468715239 -0.014497141408959958
392 0.0025870695259620716 0.0053163532046594094 -0.005341946716071178
390 -0.0124987965299711 -0.005504142393107128 -0.0006053990754880609
388 0.004663451809920079 -0.0026571253842063926 0.007584178619048449
391 0.00014336315166241432 -0.005804614069120968 0.005139289461596298
393 0.007283216198927591 -0.0025456268865512604 0.011342524878162492
419 0.0032734478051777856 0.0030152671305785405 0.003639139330631312
89 -0.003842245561553519 0.0035263972270628487 -0.0007070488097024315
126 0.011757918451239378 0.00394398802526604 0.007491940982437308
18 -0.0021350134872732945 0.003324230114636512 0.008637007626060112
232 0.0006492406859744271 -0.012445424458183415 0.004572413053604022
19 0.0030052228755413197 -0.0035780798290864528 -0.017798903570227922
240 -0.0022914215252474606 -0.0011568996763750604 -0.0016258383654177524
301 0.0077111133590559424 0.00011921700787704852 0.0019909302400125447
27 -0.015035272995182817 0.029421026681989787 8.359489839360124e-05
233 -0.019868638161232573 0.011077252235242111 0.016077693756650753
152 0.020292453861566955 0.0016907590756970565 -0.012098989733096472
46 0.0008329218837583034 0.012409231146312136 -0.015303395539830879
42 0.0057558429737447625 0.007912306921423607 0.0037200315602780435
39 0.0063152484823643575 0.002728476496723654 0.00044829525015188757
37 -0.02537736827954861 -0.01120269177736545 -0.015749318893537156
35 -0.006794434161868514 -0.004930768658785675 0.0021864354594407025
145 0.003959329452436497 -0.001300588635977673 -0.013671808882811968
197 -0.0013990436461612417 0.0020735387599213335 -0.003475921805498104
38 -0.00699116964891323 0.010135128093102908 -0.0033229831141779243
41 -0.0026907209564523576 -0.005814400487953687 -0.021256572224611178
36 0.01024811630218195 -0.026531908384990123 0.020875946119099528
198 0.0034917489774035746 -0.0038685564916949855 0.002517970362233079
45 0.0034129838365269238 0.001682162648898642 -0.0014306634013586952
43 0.0018231990963650452 -0.011980344668230872 0.00636935723286389
44 -0.00239241815565255 -0.007807636182379455 0.00815700173874328
81 -0.0025696852157202454 0.005031430047038117 0.00951406596710492
48 0.005870825853031857 0.009938362190403952 0.001664805095108101
51 -0.003039835671786789 -0.020208224023049115 -0.001255504516009073
50 0.013153214215287775 0.010022123410733512 -0.029575590437501603
49 0.025785854705670488 0.021091755308706904 0.014453825414077415
103 -0.0056492705244995615 0.004281409168179305 -0.0004254536866267999
102 0.0009590518003342146 0.0050455464348668965 0.0011181145676221861
408 -0.011998936836699158 0.0006209743678045192 0.0005024431338294127
402 -0.0027421686604064102 0.00486012111425477 0.002621856559873445
396 -0.007266295802573053 0.004177037660767281 0.0010353702025681058
401 -0.002809254991173646 -0.007885897598047115 -0.00014650988315913135
386 0.028975959284147944 0.02780430063451641 -0.020847867768802434
384 0.013101077973790357 -0.002061463659204555 -0.00236786409066328
385 0.01738133359228373 -0.008615881254851594 0.015557984994382084
387 -0.015219268773924623 -0.02036818940851759 -0.01006857707118535
395 -0.01257809162031627 -0.02199350896980216 -0.014849337286974294
409 -0.004843677478920457 0.0009161125298423617 -0.008384135722242744
410 -0.00445014483429851 0.0017957924453570022 -0.0038423023630378608
394 -0.009604972424713972 -0.0008025815382874259 -0.007287363214061277
398 -0.01772651611289866 0.019419686436915724 0.011824446240962067
399 -0.03146742612660269 0.00731702307164886 -0.0015573303494295623
400 -0.007337149190340284 -0.016393830913416833 0.010302423305976157
397 -0.009130567817169009 -0.001543216381830297 -0.007142533626914698
332 0.014527585108337359 -0.012562364729031609 -0.016872102759786133
420 0.003833306047100907 0.007107731212520403 0.004066832259318771
331 0.03725684061665769 -0.020733988651526716 -7.643501340536317e-05
319 0.0070943839029882485 0.00851858808342158 0.001230189978925164
320 -0.0035256849777580684 -0.001949511848665262 0.0008330755154541402
318 0.02836885595491741 0.006788216217788341 0.0009352740815006996
327 0.003314256900753061 -0.013607473453422827 0.0009063161420477392
326 -0.0024007672222180125 0.0008417136082233881 0.005824932492419674
329 0.002590342956188017 0.0021240986302940206 -0.0021312284225756383
322 -0.004385591541567902 -0.011213509200419941 0.0017378433358868212
324 0.011523600009475412 0.008979156568999908 0.02308821680809901
321 -0.012591915736568099 0.011104802399272393 -0.0003214155463903108
328 -0.013608499131517146 0.0027572593849806717 -0.0033707477775336467
323 -0.003194870580826976 -0.0036951941410096373 0.003768081082802871
316 -0.00024171515520228756 -0.009073317520389635 -0.004904212115644081
325 -0.00934317668556617 0.01495753046788343 -0.006085668951174019
317 0.019807659571457734 -0.011070969909188927 0.011859381781509271
88 -0.00011434855512975168 0.007687811028836895 -0.0007193449864853657
181 0.00540440248639768 0.012125163618137121 0.0063363893029126294
186 0.025223192386138266 0.022929075656729598 0.01141619256943865
184 0.001358877779558451 0.006692029427486375 0.0059553608204446955
185 0.016432696452878124 0.015790346746539417 0.008853680061203304
189 -0.008630242930245094 -0.010458866565496753 0.01321535925368007
187 0.00828314681782595 0.003491675399056131 -0.003989750197478207
182 0.013964764530436347 0.020483426248054132 -0.005356276779819414
188 -0.0006029593899376152 0.018012575375160444 -0.027403509424530105
183 -0.002436756531323566 -0.014099735484170924 0.0003671258339862579
175 -0.0007785606587364006 -0.009863489036029063 -0.033889839248061264
204 0.0004241669881885306 0.001337062729112766 -0.0012425036158309566
203 0.0005999246722944274 -0.008272888136171034 -0.004351768822294992
201 -0.0012874917132642038 -0.0035716894891262806 0.0007609762577883697
202 -0.002768735898634741 -0.0034759021721050736 0.002206122292771092
207 0.003254962062809731 -0.007312626552181534 -0.001997911315214423
173 0.014458650533355134 0.0016387582717644457 -0.008683746372282652
303 0.0030843472123058937 0.003331967366458938 -0.005013647833089175
298 0.00508520864130957 -0.0025635016701366893 0.00913686944160573
190 0.03455411345409517 -0.0027959989689201703 0.03412774337330565
180 0.011449728154527994 0.01583893219519213 0.003027780350955614
191 -0.004073262386028912 0.004870046168967474 -0.002162314390086905
192 0.0027456007469273216 -0.007858397953905475 0.0015816418348411142
176 0.0008136302046763995 5.9188573907329554e-05 -0.0049444766590798625
178 -0.0012939341458695847 -7.026002122580334e-05 -0.002916408026585187
179 0.01784540460273692 -0.021584489231700307 -0.011165009302146698
174 -0.01057462977083853 -0.004230744965457154 -0.002078914509083203
177 -0.002720853301997776 -0.046477978414604604 -0.018463194087677923
104 0.00586588793601513 -0.011119761480481192 -0.004112454006228372
105 0.003380895005568999 -0.003847907841830577 -0.006349882713122581
208 0.004417021091994408 -0.004191813440727714 0.0027211446681030147
91 0.0037311040167037676 9.474521344597903e-05 0.005432996105625829
90 -0.008175438141519246 -0.006177973752642207 -0.010714110649605509
30 0.01329442459003892 -0.004176042617293132 -0.014321178443986267
28 -0.00044286122669885756 -0.0030112485245196983 -6.37273317641919e-05
25 -0.0010881941054716308 0.007710775718970219 0.0014443740191949373
22 0.0012005231576358638 0.0010394029107846264 0.002903499387171399
31 -0.002749883772365126 -0.006050844965756478 0.010150609638818425
24 -0.009533141490975538 -0.02982198677741066 -0.023798294069049777
336 -0.011279585229515676 0.011307806671954442 0.009660889691036716
228 -0.006002143609802358 0.0019765295009553123 0.0010722173474022026
29 -0.01891752076353698 0.005782907528860433 0.016880982549887874
26 0.030598901866563062 0.03481415395516982 -0.023318412465950705
229 -0.0036930893937098834 0.020141090857468142 0.009987266149894005
335 -0.02345855825849441 -0.0008406435406753765 0.004117510038955895
237 0.018629713338379535 -0.005965204548808694 -0.020118989986057954
23 -0.009916247364544729 -0.02014621393586584 0.03177372379869069
32 0.00282722510354574 -0.006036813938206606 0.0022819836463533155
33 0.009986718861910363 -0.02295910827475688 0.008016667611764153
34 -0.00015980557029143913 0.013504687800161997 -0.014594188687738534
315 0.006828219697894878 -0.006712129117305157 0.004576018323020752
195 -0.005387687173362664 0.00010032611808500655 0.00028721105900098086
172 -0.0014480749754311982 0.0008742594077170883 0.006936733140514349
171 0.008428633095349674 -0.0468311031550241 0.0034083943548527448
168 0.04454865497921913 0.002587886782428309 -0.0014433968903991578
95 -0.0036883032511449403 0.00595533442952443 0.003225243784487923
94 -0.005826373162714742 0.0027015966377488265 0.004283291796236337
169 0.0022518591930778425 -0.009974952313419853 -0.002508528616902551
167 0.0004593981416165128 0.0077461504687117285 0.0014218486847305998
170 0.002475731737103532 -0.006974517456277693 -0.0009708433064046121
166 0.0027171795011140284 -0.027022960045696997 0.02618487678706186
164 -0.0014032586910498353 -0.0038562750430581635 0.00016572019382492188
165 0.018267333195145792 -0.006822237911969972 0.018779024656276816
163 0.010269296289354487 0.02286490519856362 -0.0014160542578897852
162 -0.03355665394111205 0.0033751476615591827 0.02412784435320794
161 0.012885094642659394 0.0005456550358655113 0.0020328807946038943
158 -0.002591940662523296 -0.01627516631544004 -0.0003001014704537708
157 -0.0037162610902143267 -0.006529650777401791 0.0032372153666300365
160 0.0014997346457104393 -0.01712505031613317 0.007777140022441501
159 0.02330378439117983 -0.019958859965986137 0.03574697902190023
92 0.006396270418598332 0.005924679581801103 -0.0008819193285160373
93 0.0010542162080736186 -0.005952688105341185 0.0002458087780419966
83 -0.007199931335655578 0.03753655243528076 0.014637506569706391
302 0.0005536297196294803 0.004143478127369185 -0.004811404558371847
200 0.0012298039452042291 -0.00032781308430590626 0.001663608773183839
199 0.0013437858561158934 -0.0012801482901296025 -0.0030836109394737398
314 -0.0065928649685922614 0.002461383826541518 0.0008146934401597682
196 -0.006095295213431084 -0.000715425714400388 -0.004338882732268551
194 -0.0007188428788698462 -0.007459639995540845 -0.005597627848837519
193 -0.005193086120432989 -0.0040995089692284796 0.005343092335393163
259 -0.019143880287616346 0.025357646992427846 -0.004573832793904033
362 0.01096230788985986 0.019579091901032724 0.014348067914622563
255 0.0006269604393907689 -0.0046750951202375775 -0.004726378478847335
260 -0.024805115213598548 0.014272094548972674 -0.005389784680518975
258 0.008581458791356241 -0.0004911821503085579 -0.00015142272581511479
296 -0.00468374234509822 0.007992811015253608 -0.0041711874005846885
254 -0.01992088230287232 -0.00940446009551898 -0.03630254533297966
297 -0.0020003523480097434 0.0019795357910935784 -0.0015984586335526174
253 -0.008646238064263493 -0.0010973630900265221 -0.006350403964353299
252 -0.006625633928295292 -0.0016910877614771884 -0.004065951290440023
230 -0.0006042164791532951 0.010412898532425541 0.005000831435786517
334 0.0033568610896588347 0.0012512576156819206 0.012604446894593117
333 0.004466944847670388 0.0010285110362423433 0.004529942614985615
342 0.011739959546365582 -0.006915792246506629 0.013638753932195193
131 0.01968216534703232 0.00662986873897503 0.023916674435094827
130 0.0006910732400378135 0.002952129252067928 0.0005508997111277659
127 0.008027930761316589 0.003010038425984069 0.0061067122695657285
129 0.0028232943203813647 -0.008842187122933047 -0.012916338342126752
128 -0.008090468936031513 0.013048831176632294 -0.008658138986204074
133 0.0025244975858844153 0.0043466114071948865 0.002362808525378135
134 -0.012201358537290222 0.006982420878377473 -0.004097513905290337
135 -0.0016492598542201952 0.010636834346708908 -0.020511645173933866
138 0.003897652336518605 -0.014563784760078403 -0.015134497346865134
136 0.0019228238427387169 -0.0024783457979637514 0.004298611434698799
139 -0.01542332288940842 -0.0011233685699466457 -0.006694365050732764
137 0.005094687489108012 0.002463501194975206 0.011735181905618161
206 0.004348034195066415 0.0022658000236727726 0.0008605318154380583
205 0.0020444565866493533 0.0004498651540221856 -0.00312633746350859
231 0.020782309283605405 -0.0005821772763896259 -0.0005277402356333051
84 0.005641548579000712 0.01745423709970133 -0.029518946225843095
417 -0.001472984479355233 -0.00224886649699624 0.00614411754168259
418 -0.001272689776839321 0.0071738061786157945 -0.008426939080602316
356 0.00023771838206076138 0.017058129609588718 -0.011074098140547581
363 -0.0011878084925346123 0.0031361646675697845 -0.0052822422218793234
365 -0.006612231895322975 0.005513200871410587 0.0005951012066899929
358 -0.011410545169450234 -0.009574187522597762 -0.004801233339498812
257 -0.01047182479532798 0.014545736891177679 -0.006186834292983909
360 0.006550493997752259 0.005268058904537129 0.0005370209845443939
359 0.01498002802041867 0.019954132620305483 -0.016350414316983784
354 -0.0012855383105476604 -0.000800977099648852 0.0033899848365054703
357 0.0008703263921185441 -0.005730623994772776 -0.0015570297612196719
361 -0.0020662004679719266 0.0072022345848513 -0.011247766933425196
250 0.0127479633196432 0.0004312295751171747 -0.000841353458659862
366 -0.004527250347032457 0.022519575680754227 -0.01366976971449372
364 -0.002314813933560837 -0.0007722560661536877 -0.006619199897559079
353 0.031991259891550716 -0.021918291089839146 0.02272952718249132
351 0.017247956651200085 0.008520582682391914 0.0006242981379144305
350 0.010578217777736487 -0.001700593124807699 0.011617624862443892
352 -0.002477145084283087 -0.0032354462796458892 -0.012535311810184357
381 -0.0019093806834594167 0.0025903858444200826 -0.00817812069748105
87 0.002647303259439628 0.00453401478823273 0.0013515833688586582
86 0.003596137606746018 0.0036628764771092824 -0.0006756863105688742
225 0.016272259851777812 -0.041233591822859204 0.004309393214920535
222 0.005842861258696606 0.014787432624679459 -0.0016011651089648472
226 -0.005732903463834901 0.006011520653954505 -0.024110590123841848
211 -0.009751771112683804 -0.0016215815482657197 0.005575847663444386
212 -0.025208656226350584 -0.01578541670484451 0.03220082675768365
216 0.008786900497070071 -0.00687371434451655 0.032529904316618556
215 -0.005401512163972539 -0.0018440579899141867 0.008086073989098682
220 -0.0063922031972889655 -0.005227699957691843 -0.01722333106329338
218 -0.0038704251089014775 0.009776605540422666 0.0002681627766056202
223 -0.00421154386598626 0.024319685010836128 -0.006911007045586914
227 -0.023974156730250284 -0.0005948211366011664 0.00857205365606866
224 0.008156579945942367 -0.0018371899706950748 0.002054126340287828
221 -0.006457638866516985 0.00031543430023875076 -0.002025127402582543
219 -0.010068688152066527 0.0007675408802905918 0.0026781513531822735
217 -0.017511190401589403 0.024373097354739224 -0.01303299657450254
213 -0.021243250715013796 0.010329132660713683 -0.00042490847569679233
214 0.0048068480274523545 -0.015350980406558835 0.013716238718867915
414 0.011194658906024212 0.006603433422600934 0.007945959602450352
378 -0.01021282097835252 -0.006870009275303802 -0.003792945039895053
413 0.0114053785096815 0.0007247578124474782 0.0040642457193189015
308 -0.006059127547783638 0.006146860187368269 0.004936840212621092
261 0.02251015178461903 0.036267417009742585 0.01109869063708452
375 -0.022344682729934243 -0.0055057585407784545 -0.001959098074748785
376 0.006855430062627833 0.016882242402221158 0.0055583210464330785
374 0.007917591122948275 0.0024343896628329447 0.0014652642966919006
373 0.0067621940631880035 0.0031904077701485636 0.0056518670994520565
369 -0.015245884373201832 0.006361262854805662 0.019186651528966748
372 0.0006519108709213696 -0.005705105052153988 -0.0025370517913196233
370 0.014764501856651497 -0.03784031147375304 0.020098288812575884
368 -0.009616515300616713 -0.0028308805226761554 -0.008721498520676942
367 0.0015101356165070144 0.0031798838228735736 0.0016263695586243591
371 0.003610454526239711 0.0036457263216374534 0.006652453807541853
309 -0.008832389379678259 0.00498178337134867 -0.001003218449971309
379 -0.010919101025381113 0.0060065531602732725 0.003031275882023808
377 0.0019034688352462458 -0.001197277114535818 0.002565719359465339
256 -0.014387138534537132 -0.015431760348928904 0.005959528342038986
416 0.0010667509456723956 -0.004905203406318621 -0.0050539720843102
415 -0.00433579828171993 -0.0019662574716734944 0.005970567965424294
382 0.008060901995436805 0.0009336557183617569 -0.012084104917762864
355 0.0015857490208079515 0.02021095421645207 -0.0017836906286015964
246 0.0014470074236515435 -0.01672043158031457 0.008407733749863781
245 -0.0011506378242200558 -0.0004121334822807111 0.007627727110671734
380 -0.002707040678477771 0.008038103655201372 -0.008932738133266302
247 0.01833273642280907 -0.011120885240292842 0.016141897680504596
251 -0.002100185359361755 -0.01324188204477628 0.010026319446875417
249 0.0033575589160896426 0.00028702215910126775 -0.004788219834729647
383 0.0007374288175136025 -0.007746049826152384 -0.0038396697573965187
412 0.007289382378734405 0.00016532434820657992 0.00029309195711974483
248 -0.005855011151414359 -0.02825291645300221 -0.026286929242182133
330 0.003590661300005671 0.005872783615665752 0.007568181987320302
411 0.0018551926146983656 -0.005758172035790301 0.0003959011389628911
