LAMMPS (4 Feb 2025 - Development - patch_4Feb2025-554-g465171d58f)
OMP_NUM_THREADS environment is not set. Defaulting to 1 thread. (src/comm.cpp:99)
  using 1 OpenMP thread(s) per MPI task
Reading data file ...
  orthogonal box = (0 0 0) to (25 25 25)
  2 by 2 by 2 MPI processor grid
  reading atoms ...
  105 atoms
  read_data CPU = 0.003 seconds
Replication is creating a 2x2x1 = 4 times larger system...
  orthogonal box = (0 0 0) to (50 50 25)
  2 by 2 by 2 MPI processor grid
  420 atoms
  replicate CPU = 0.001 seconds
240 atoms in group hydrogen
100 atoms in group carbon
80 atoms in group oxygen
Reading potential file ffield.reax.cho with DATE: 2011-02-18
=== STARTING MINIMIZATION ===

CITE-CITE-CITE-CITE-CITE-CITE-CITE-CITE-CITE-CITE-CITE-CITE-CITE

Your simulation uses code contributions which should be cited:
- pair reaxff command: doi:10.1016/j.parco.2011.08.005
- fix qeq/reaxff command: doi:10.1016/j.parco.2011.08.005
The log file lists these citations in BibTeX format.

CITE-CITE-CITE-CITE-CITE-CITE-CITE-CITE-CITE-CITE-CITE-CITE-CITE

Neighbor list info ...
  update: every = 1 steps, delay = 0 steps, check = yes
  max neighbors/atom: 2000, page size: 100000
  master list distance cutoff = 12
  ghost atom cutoff = 12
  binsize = 6, bins = 9 9 5
  2 neighbor lists, perpetual/occasional/extra = 2 0 0
  (1) pair reaxff, perpetual
      attributes: half, newton off, ghost
      pair build: half/bin/ghost/newtoff
      stencil: full/ghost/bin/3d
      bin: standard
  (2) fix qeq/reax, perpetual, copy from (1)
      attributes: half, newton off
      pair build: copy
      stencil: none
      bin: none
Setting up cg style minimization ...
  Unit style    : real
  Current step  : 0
Per MPI rank memory allocation (min/avg/max) = 13.84 | 14.9 | 15.96 Mbytes
   Step          Temp          PotEng         KinEng         TotEng         Press          Volume        c_q1avg        c_q2avg        c_q3avg    
         0   0             -40906.22       0             -40906.22      -105.95386      62500          0.095641765   -0.15661685    -0.091154239  
         1   0             -40906.365      0             -40906.365      47.46651       62500          0.095394228   -0.15604026    -0.091132361  
Loop time of 0.0117479 on 8 procs for 1 steps with 420 atoms

98.9% CPU use with 8 MPI tasks x 1 OpenMP threads

Minimization stats:
  Stopping criterion = energy tolerance
  Energy initial, next-to-last, final = 
      -40906.220305293   -40906.220305293  -40906.3647728681
  Force two-norm initial, final = 35.44914 31.218534
  Force max component initial, final = 5.3556504 4.9733198
  Final line search alpha, max atom move = 0.0023339835 0.011607647
  Iterations, force evaluations = 1 6

MPI task timing breakdown:
Section |  min time  |  avg time  |  max time  |%varavg| %total
---------------------------------------------------------------
Pair    | 0.0053123  | 0.0055456  | 0.00576    |   0.2 | 47.21
Neigh   | 0          | 0          | 0          |   0.0 |  0.00
Comm    | 0.00029672 | 0.00051366 | 0.00074842 |   0.0 |  4.37
Output  | 0          | 0          | 0          |   0.0 |  0.00
Modify  | 0.0055694  | 0.0055774  | 0.0055834  |   0.0 | 47.48
Other   |            | 0.0001112  |            |       |  0.95

Nlocal:           52.5 ave          69 max          36 min
Histogram: 4 0 0 0 0 0 0 0 0 4
Nghost:          508.5 ave         603 max         414 min
Histogram: 4 0 0 0 0 0 0 0 0 4
Neighs:         2313.5 ave        3068 max        1559 min
Histogram: 4 0 0 0 0 0 0 0 0 4

Total # of neighbors = 18508
Ave neighs/atom = 44.066667
Neighbor list builds = 0
Dangerous builds = 0
=== MINIMIZATION COMPLETE ===
System init for write_data ...
System init for write_restart ...
=== STARTING NPT EQUILIBRATION at 294 K ===
Setting up Verlet run ...
  Unit style    : real
  Current step  : 1
  Time step     : 0.25
Per MPI rank memory allocation (min/avg/max) = 12.84 | 13.9 | 14.96 Mbytes
   Step          Temp          PotEng         KinEng         TotEng         Press          Volume        c_q1avg        c_q2avg        c_q3avg    
         1   294           -40906.366      367.19407     -40539.172      315.92045      62500          0.09543643    -0.15611672    -0.091163388  
       100   209.71379     -40796.228      261.92401     -40534.304      178.98091      62521.504      0.09543717    -0.15604386    -0.091256682  
       200   207.47129     -40780.366      259.12323     -40521.243     -182.7007       62538.195      0.096254176   -0.1577833     -0.091533401  
       300   199.55766     -40758.174      249.23942     -40508.935     -492.53773      62505.676      0.095503584   -0.15601859    -0.091487519  
       400   199.60734     -40745.751      249.30146     -40496.449      46.314256      62468.908      0.096492204   -0.15796093    -0.092025449  
       500   215.85445     -40751.608      269.59345     -40482.014     -269.33804      62471.491      0.096545478   -0.15724782    -0.093076657  
       600   236.70906     -40760.986      295.64        -40465.346     -218.97677      62458.665      0.097804154   -0.15913363    -0.094495432  
       700   245.8486      -40755.761      307.05492     -40448.706     -530.29374      62418.767      0.097574821   -0.15773245    -0.095558896  
       800   251.09951     -40745.181      313.61309     -40431.568      90.26449       62411.289      0.098670914   -0.15983523    -0.096218708  
       900   266.60463     -40747.482      332.97837     -40414.504     -754.27277      62444.79       0.098166657   -0.15794234    -0.097072042  
      1000   262.33117     -40726.059      327.64099     -40398.418     -401.56106      62457.671      0.099137671   -0.15932935    -0.098251326  
      1100   301.4652      -40759.535      376.5178      -40383.017     -352.69637      62470.611      0.098757655   -0.15800834    -0.098762538  
      1200   302.97747     -40747.529      378.40656     -40369.122     -202.37231      62537.559      0.099740887   -0.15968618    -0.099614939  
      1300   307.80607     -40741.388      384.43729     -40356.95      -981.25812      62627.834      0.099698521   -0.15854571    -0.10091342   
      1400   327.50173     -40756.448      409.03637     -40347.411     -369.96062      62696.192      0.10036987    -0.15984267    -0.10130628   
      1500   329.59327     -40753.243      411.64862     -40341.595     -228.71237      62783.969      0.099918508   -0.15882877    -0.10121956   
      1600   319.06175     -40738.894      398.49518     -40340.399     -210.71688      62934.244      0.10043788    -0.15939275    -0.10207271   
      1700   329.01532     -40753.447      410.92677     -40342.52      -565.22685      63108.679      0.10072265    -0.15910304    -0.10328914   
      1800   307.44268     -40732.658      383.98343     -40348.674      303.10747      63291.93       0.10119747    -0.15987916    -0.10374347   
      1900   301.68925     -40735.074      376.79762     -40358.276      337.03693      63533.117      0.10110938    -0.15953463    -0.10390984   
      2000   295.91277     -40738.318      369.58304     -40368.735      183.64648      63833.217      0.10165332    -0.16031443    -0.10456692   
      2100   297.43608     -40750.61       371.48559     -40379.124      388.98131      64138.465      0.10175706    -0.16012038    -0.1051207    
      2200   300.46339     -40764.176      375.26658     -40388.909      781.86348      64453.158      0.101811      -0.16058829    -0.10469763   
      2300   275.96069     -40742.79       344.6637      -40398.126      450.20961      64835.789      0.10151667    -0.16032207    -0.10414742   
      2400   288.00545     -40763.498      359.70711     -40403.79      -227.18173      65261.534      0.10100708    -0.1595281     -0.10361111   
      2500   274.31351     -40750.402      342.60644     -40407.796      204.54103      65660.948      0.10162688    -0.16126785    -0.10329583   
      2600   289.78544     -40771.444      361.93025     -40409.514     -92.204926      66046.675      0.10037068    -0.1587972     -0.10261556   
      2700   280.05763     -40759.324      349.78061     -40409.543     -48.607194      66452.659      0.10083673    -0.16024245    -0.10220712   
      2800   290.78918     -40769.389      363.18388     -40406.205     -227.25684      66846.754      0.10037585    -0.15888312    -0.10252366   
      2900   284.6042      -40757          355.45909     -40401.54       478.52274      67211.437      0.10160574    -0.16204881    -0.10225621   
      3000   285.7606      -40751.688      356.90339     -40394.784     -331.15775      67585.884      0.099650956   -0.15749893    -0.1020792    
      3100   287.06457     -40745.19       358.532       -40386.658      193.04247      67972.704      0.10109881    -0.16061907    -0.1025226    
      3200   289.31325     -40739.316      361.3405      -40377.975     -8.6891323      68336.042      0.10052047    -0.15867205    -0.10322135   
      3300   301.52086     -40747.08       376.58731     -40370.493      733.06967      68675.475      0.10223081    -0.16217674    -0.10397152   
      3400   290.04954     -40726.382      362.2601      -40364.122     -381.12935      69036.801      0.10082443    -0.15820625    -0.10471548   
      3500   295.71737     -40727.603      369.339       -40358.264      417.28866      69415.461      0.10244878    -0.16194589    -0.10491398   
      3600   300.00276     -40728.615      374.69126     -40353.923     -119.75865      69793.936      0.10083301    -0.15833783    -0.10457675   
      3700   304.26938     -40731.811      380.0201      -40351.791      806.28754      70179.506      0.10226124    -0.16161952    -0.10475931   
      3800   309.41046     -40738.474      386.4411      -40352.033     -198.67471      70592.798      0.10073304    -0.15814535    -0.10451744   
      3900   314.78228     -40747.126      393.15029     -40353.975      338.4773       70981.153      0.10209595    -0.16181369    -0.10402073   
      4000   295.45177     -40728.214      369.00727     -40359.206     -262.77596      71344.319      0.10043722    -0.15825833    -0.10348876   
      4100   304.66537     -40746.523      380.51468     -40366.008      373.26211      71736.023      0.1013788     -0.1606292     -0.10334991   
      4200   283.52952     -40727.491      354.11687     -40373.375     -149.49089      72168.687      0.10065101    -0.15890426    -0.10332271   
      4300   297.37556     -40750.414      371.41        -40379.004      92.714936      72579.836      0.10116726    -0.16081834    -0.10247886   
      4400   282.07245     -40736.495      352.29704     -40384.198     -141.14873      72970.437      0.10001281    -0.15859099    -0.10179969   
      4500   288.0006      -40747.911      359.70105     -40388.21      -95.084012      73381.128      0.10090724    -0.16077817    -0.10174902   
      4600   274.69081     -40733.428      343.07767     -40390.35      -256.66705      73794.166      0.10015246    -0.1591401     -0.10153225   
      4700   275.86115     -40734.174      344.53938     -40389.635     -124.04495      74173.276      0.099983408   -0.15960976    -0.10043802   
      4800   274.58387     -40729.389      342.9441      -40386.445      28.673132      74545.878      0.099187106   -0.15842277    -0.09953286   
      4900   286.38669     -40738.406      357.68535     -40380.721      28.529666      74949.942      0.099304427   -0.1593021     -0.098785661  
      5000   295.82265     -40742.181      369.47049     -40372.711     -81.859691      75331.861      0.099035498   -0.15911927    -0.098207411  
      5100   292.04583     -40728.764      364.75339     -40364.01      -224.90087      75641.306      0.098460483   -0.15817852    -0.097658301  
      5200   300.63925     -40731.935      375.48622     -40356.449      25.878198      75917.221      0.098716312   -0.15882795    -0.097614003  
      5300   297.10101     -40722.198      371.0671      -40351.131     -219.61789      76209.318      0.098914994   -0.1589917     -0.098005359  
      5400   300.73117     -40722.343      375.60103     -40346.742     -166.76079      76480.447      0.098879789   -0.15872765    -0.098229807  
      5500   302.95897     -40722.66       378.38346     -40344.276      48.033345      76716.411      0.098674777   -0.15771979    -0.098874593  
      5600   306.94333     -40727.536      383.35975     -40344.176      524.32696      76967.401      0.099663799   -0.15954479    -0.09956041   
      5700   302.96288     -40723.956      378.38834     -40345.568      66.230493      77255.804      0.09946745    -0.1583681     -0.10044222   
      5800   308.41517     -40733.049      385.19803     -40347.851      143.98391      77522.152      0.09998934    -0.15914589    -0.10103566   
      5900   311.98584     -40741.509      389.65765     -40351.851      179.35409      77768.944      0.099911309   -0.15841023    -0.10172114   
      6000   307.81906     -40742.035      384.45352     -40357.581      212.62753      78054.509      0.10060461    -0.15959428    -0.10232099   
      6100   290.86832     -40727.917      363.28273     -40364.634     -96.656395      78364.272      0.10071148    -0.15919448    -0.10314133   
      6200   300.27046     -40747.427      375.02562     -40372.402      48.05586       78664.183      0.10065841    -0.15930931    -0.10283859   
      6300   292.35681     -40745.772      365.14178     -40380.63       85.264416      78979.719      0.1003943     -0.15881808    -0.1026603    
      6400   285.24228     -40743.954      356.25603     -40387.698     -50.258521      79329.84       0.10056455    -0.15951956    -0.10229419   
      6500   288.13981     -40752.443      359.87493     -40392.568     -90.022975      79662.493      0.10046513    -0.15967899    -0.10179666   
      6600   274.07836     -40737.893      342.31275     -40395.58       42.840191      79963.232      0.10004458    -0.15923154    -0.10109432   
      6700   278.50375     -40744.311      347.83988     -40396.471      185.97057      80274.712      0.099669315   -0.15893595    -0.100338     
      6800   279.3029      -40743.042      348.83799     -40394.204     -228.87858      80590.785      0.099644612   -0.15906001    -0.10010883   
      6900   284.91713     -40743.737      355.84993     -40387.887      104.09878      80861.633      0.099874828   -0.15972701    -0.099965719  
      7000   276.71284     -40719.76       345.6031      -40374.157     -16.179223      81109.701      0.099582993   -0.15868986    -0.10038666   
      7100   300.32034     -40729.157      375.08791     -40354.069      1.3647303      81373.722      0.099876017   -0.15917082    -0.10066453   
      7200   304.09956     -40720.849      379.80801     -40341.041     -227.7012       81640.627      0.099987203   -0.15926243    -0.10088357   
      7300   306.44298     -40718.248      382.73485     -40335.513     -33.94774       81878.451      0.10003015    -0.15952737    -0.10068124   
      7400   321.56942     -40735.5        401.62715     -40333.873     -97.31896       82114.279      0.099525909   -0.15801681    -0.10105672   
      7500   311.36481     -40724.878      388.88201     -40335.996      127.69031      82374.558      0.10070954    -0.16019389    -0.10188626   
      7600   321.65613     -40742.248      401.73546     -40340.513     -14.773582      82626.801      0.10084035    -0.15978603    -0.10278852   
      7700   320.70766     -40749.208      400.55085     -40348.657      221.42087      82842.008      0.10172531    -0.16093687    -0.10400485   
      7800   303.29785     -40737.597      378.8067      -40358.79      -257.10152      83077.428      0.10155767    -0.1595077     -0.1052884    
      7900   304.05906     -40748.957      379.75742     -40369.199      65.696613      83366.657      0.1028371     -0.16160948    -0.10649946   
      8000   302.20675     -40755.657      377.44397     -40378.213     -165.68711      83672.857      0.1034181     -0.16167215    -0.10816413   
      8100   283.9891      -40741.02       354.69086     -40386.329      55.592923      83991.328      0.1039451     -0.16192696    -0.10942661   
      8200   292.47874     -40757.839      365.29407     -40392.545     -126.75014      84374.719      0.10372277    -0.16071991    -0.11026842   
      8300   280.76201     -40747.384      350.66035     -40396.724      154.35067      84816.81       0.1048167     -0.16284892    -0.11088895   
      8400   280.11663     -40748.358      349.8543      -40398.504      58.145908      85271.837      0.10401255    -0.16116327    -0.11058355   
      8500   288.9053      -40759.212      360.831       -40398.381      161.92566      85758.702      0.10382744    -0.16138584    -0.10975002   
      8600   292.11508     -40761.449      364.83987     -40396.609     -137.37021      86298.395      0.10305858    -0.16009425    -0.10905792   
      8700   292.82124     -40758.796      365.72185     -40393.074      82.258196      86840.496      0.10343015    -0.1611552     -0.10884645   
      8800   300.59439     -40763.897      375.43019     -40388.467      127.59537      87365.507      0.10295836    -0.16061018    -0.10811236   
      8900   302.71588     -40761.209      378.07984     -40383.13       119.85208      87889.24       0.10268048    -0.16034056    -0.10761573   
      9000   292.30338     -40742.652      365.07506     -40377.577      17.894102      88419.035      0.10257008    -0.16012091    -0.10755911   
      9100   305.53536     -40752.927      381.60127     -40371.326      72.26021       88938.593      0.10274796    -0.16047376    -0.10765169   
      9200   280.48687     -40716.255      350.31672     -40365.938      181.09894      89444.15       0.10304869    -0.16087945    -0.10804675   
      9300   302.41121     -40737.923      377.69932     -40360.224     -64.055734      89955.624      0.10247997    -0.15973814    -0.10776724   
      9400   304.05065     -40735.753      379.74692     -40356.006      35.284743      90468.424      0.10312462    -0.16103283    -0.1080828    
      9500   308.28178     -40738.441      385.03143     -40353.41       126.84162      90970.424      0.10333479    -0.16126265    -0.10842607   
      9600   306.74874     -40735.784      383.11673     -40352.667      218.81764      91475.148      0.10352388    -0.1614671     -0.10873777   
      9700   307.86239     -40737.786      384.50763     -40353.278     -91.19784       91991.93       0.10283344    -0.16013667    -0.1083295    
      9800   294.07472     -40723.703      367.28739     -40356.416      191.96785      92485.5        0.1034368     -0.16163491    -0.10826677   
      9900   302.73253     -40741.512      378.10064     -40363.411      186.69973      92953.808      0.1029224     -0.16058003    -0.10804216   
     10000   297.30543     -40746.945      371.32241     -40375.623      329.53179      93419.542      0.1028367     -0.16095411    -0.10731747   
     10100   281.6649      -40740.774      351.78803     -40388.986      170.96013      93891.753      0.10250065    -0.16036701    -0.10704318   
     10200   272.51232     -40738.304      340.35683     -40397.947      210.96558      94356.434      0.10317595    -0.1621681     -0.10681774   
     10300   275.09903     -40744.716      343.58752     -40401.129     -53.547126      94803.708      0.1019029     -0.1598337     -0.10591657   
     10400   270.00213     -40737.535      337.22171     -40400.313      135.73663      95221.709      0.10201533    -0.16057357    -0.10532904   
     10500   276.20091     -40742.248      344.96373     -40397.284     -52.343106      95620.714      0.10165494    -0.15987759    -0.10511782   
     10600   286.20322     -40749.61       357.4562      -40392.154      201.40953      95995.536      0.10194036    -0.16082375    -0.1047914    
     10700   281.97651     -40738.103      352.17722     -40385.926     -98.745217      96355.064      0.10117744    -0.15910675    -0.10464889   
     10800   284.86778     -40734.825      355.78829     -40379.037      40.517729      96700.113      0.10169417    -0.16054428    -0.10440216   
     10900   279.69045     -40721.413      349.32202     -40372.091     -14.909358      97032.115      0.10100683    -0.159018      -0.10424798   
     11000   281.5976      -40717.302      351.70397     -40365.598      59.445177      97355.943      0.10193145    -0.16088362    -0.10468984   
     11100   287.57131     -40719.24       359.1649      -40360.075     -151.2363       97680.8        0.10145493    -0.15920124    -0.10536324   
     11200   289.27544     -40717.083      361.29328     -40355.79       230.62248      97991.665      0.10260186    -0.16168687    -0.10569699   
     11300   292.41041     -40717.118      365.20874     -40351.91       74.537715      98304.518      0.10159943    -0.15940517    -0.10554184   
     11400   296.77494     -40719.138      370.65986     -40348.478      89.028422      98616.047      0.10192072    -0.16038479    -0.10528118   
     11500   304.0344      -40725.994      379.72662     -40346.268     -129.80309      98937.452      0.10147063    -0.15915497    -0.10546817   
     11600   295.78151     -40714.722      369.4191      -40345.303      32.952677      99269.471      0.10199332    -0.16055015    -0.10529227   
     11700   301.62302     -40722.173      376.71491     -40345.458      29.207746      99579.567      0.10155362    -0.15935692    -0.10546472   
     11800   295.8848      -40716.969      369.5481      -40347.421      153.92539      99884.384      0.10197015    -0.16019573    -0.10566579   
     11900   298.47814     -40723.305      372.78708     -40350.518      181.72638      100215.39      0.10161662    -0.15924667    -0.10579151   
     12000   292.72948     -40719.823      365.60723     -40354.216      31.46923       100564.82      0.10158722    -0.1591735     -0.10579478   
     12100   285.47441     -40714.555      356.54595     -40358.01      -28.614132      100921.85      0.10155152    -0.15907222    -0.10581429   
     12200   282.10246     -40715.186      352.33452     -40362.852      159.64756      101311.58      0.10150072    -0.15952377    -0.10509744   
     12300   284.44823     -40723.254      355.26429     -40367.99       128.12322      101730.88      0.10106462    -0.15862048    -0.10491826   
     12400   278.76199     -40721.297      348.16242     -40373.134     -88.030978      102112.86      0.10134732    -0.15919095    -0.10505328   
     12500   269.94286     -40716.392      337.14767     -40379.244     -79.185497      102451.58      0.10143772    -0.15944864    -0.10500236   
     12600   263.3283      -40715.022      328.88636     -40386.136     -82.89543       102810.2       0.10150814    -0.15956904    -0.10506313   
     12700   266.63922     -40724.795      333.02157     -40391.774      19.905037      103210.3       0.1011843     -0.15900923    -0.10479136   
     12800   275.49359     -40739.412      344.08031     -40395.332      117.68477      103593.87      0.10124303    -0.15937293    -0.10451292   
     12900   269.33635     -40733.309      336.39017     -40396.919      208.71131      103937.25      0.10087044    -0.15891964    -0.10396176   
     13000   275.32064     -40739.3        343.86431     -40395.436      97.815377      104285.6       0.10094163    -0.15925775    -0.10375269   
     13100   263.27356     -40717.889      328.81799     -40389.071     -245.12388      104657.63      0.10111178    -0.1596377     -0.1037882    
     13200   282.90036     -40730.363      353.33106     -40377.032     -235.1734       104995.17      0.10103358    -0.15966354    -0.10352132   
     13300   291.44208     -40727.919      363.99933     -40363.92      -44.312046      105296.16      0.1004515     -0.15857848    -0.10313139   
     13400   297.3701      -40726.241      371.40318     -40354.838      52.799569      105615.87      0.1001232     -0.15828701    -0.10251085   
     13500   297.01129     -40719.646      370.95504     -40348.691     -129.18864      105955.22      0.10023141    -0.15869659    -0.10232348   
     13600   295.26299     -40712.821      368.77148     -40344.049     -98.279848      106254.19      0.10032843    -0.15888497    -0.10237907   
     13700   297.84361     -40712.505      371.99458     -40340.51      -122.25796      106526.99      0.099852382   -0.1578121     -0.10229203   
     13800   288.27901     -40698.166      360.04879     -40338.117      12.666574      106813.71      0.10001934    -0.15824104    -0.10225673   
     13900   303.92973     -40715.645      379.59589     -40336.049     -67.38358       107116.94      0.10003671    -0.15824288    -0.10230654   
     14000   305.28281     -40715.983      381.28584     -40334.697      105.54445      107409.92      0.10010628    -0.15838945    -0.10233202   
     14100   300.73585     -40710.047      375.60687     -40334.44      -7.7216052      107684.17      0.099788788   -0.15734744    -0.10268206   
     14200   283.32996     -40689.227      353.86762     -40335.36       94.300311      107954.18      0.10081961    -0.15923115    -0.10341989   
     14300   300.83291     -40712.068      375.72809     -40336.34       40.912129      108235.86      0.10085506    -0.15874788    -0.10413033   
     14400   294.25021     -40706.494      367.50657     -40338.988      123.042        108534.58      0.10111866    -0.15903002    -0.10456846   
     14500   297.42375     -40714.658      371.47019     -40343.188      62.599034      108858.45      0.10079837    -0.15826437    -0.10456464   
     14600   291.90872     -40713.297      364.58214     -40348.715      65.140561      109214.27      0.10088576    -0.15875527    -0.10421318   
     14700   287.47037     -40714.733      359.03883     -40355.695      35.566103      109571.91      0.10095259    -0.15862606    -0.10457521   
     14800   289.77535     -40724.944      361.91765     -40363.026     -12.758023      109924.91      0.10122543    -0.15920485    -0.10467021   
     14900   269.03177     -40705.907      336.00976     -40369.897     -155.79176      110285.15      0.10120041    -0.15870703    -0.10521745   
     15000   281.88554     -40727.104      352.0636      -40375.041     -6.69754        110673.74      0.10176652    -0.16004556    -0.10524262   
     15100   273.37252     -40720.093      341.43118     -40378.662     -57.76496       111086.94      0.10131449    -0.15919576    -0.10494877   
     15200   276.15033     -40724.828      344.90055     -40379.928      116.3983       111495.58      0.10139907    -0.15946095    -0.10487103   
     15300   279.75108     -40728.144      349.39774     -40378.746      46.885498      111901.61      0.10119189    -0.15895938    -0.10487643   
     15400   286.14396     -40732.364      357.3822      -40374.981      142.51588      112305.97      0.10183885    -0.16028619    -0.1051588    
     15500   273.10504     -40709.143      341.09711     -40368.046      28.674754      112721.78      0.10171604    -0.15996057    -0.10519742   
     15600   285.59981     -40712.619      356.70257     -40355.916     -19.954694      113136.01      0.10146031    -0.1595889     -0.10489481   
     15700   297.08785     -40712.769      371.05067     -40341.718     -4.1793093      113535.15      0.10120332    -0.1589719     -0.1048951    
     15800   310.74663     -40719.816      388.10993     -40331.706      142.08076      113933.66      0.10160369    -0.15986051    -0.10498544   
     15900   311.00633     -40716.355      388.43428     -40327.921      159.72319      114363.17      0.10144362    -0.15945372    -0.10501371   
     16000   298.83695     -40700.169      373.23523     -40326.934      213.33592      114802.4       0.10101698    -0.15861849    -0.10477782   
     16100   301.40121     -40704.276      376.43787     -40327.838      286.36789      115229.24      0.10128086    -0.1591485     -0.10490696   
     16200   315.39399     -40724.343      393.91429     -40330.429      127.34059      115656.04      0.10133201    -0.15919929    -0.10499692   
     16300   303.681       -40714.878      379.28524     -40335.593      28.898852      116075.96      0.10162918    -0.15992052    -0.10498689   
     16400   295.08756     -40710.132      368.55239     -40341.579     -61.552783      116480.58      0.10088356    -0.15800793    -0.10514076   
     16500   297.22766     -40718.678      371.22528     -40347.453      179.22852      116878.04      0.10180097    -0.15972246    -0.10574984   
     16600   283.54257     -40706.879      354.13316     -40352.746      66.960671      117286.84      0.10151839    -0.15861493    -0.10628652   
     16700   278.9993      -40705.69       348.4588      -40357.232      213.27785      117705.78      0.10221335    -0.16017171    -0.10642542   
     16800   293.09935     -40725.868      366.06919     -40359.798      54.923673      118144.28      0.10129873    -0.15811436    -0.10625323   
     16900   283.21769     -40715.653      353.7274      -40361.925      148.74552      118609.77      0.1019555     -0.1598848     -0.10601051   
     17000   280.16457     -40713.358      349.91417     -40363.443     -122.58558      119094.75      0.10154649    -0.15886431    -0.10605908   
     17100   283.61475     -40717.608      354.22331     -40363.385      103.22418      119536.42      0.10184783    -0.15970313    -0.10591456   
     17200   280.36268     -40712.446      350.1616      -40362.285     -82.858088      119953.61      0.1009861     -0.15792906    -0.10554699   
     17300   296.5262      -40729.87       370.34919     -40359.521      159.0778       120418.04      0.10181404    -0.15992384    -0.10553732   
     17400   287.31998     -40712.22       358.85099     -40353.369     -212.86008      120938.26      0.10065435    -0.15749936    -0.10508884   
     17500   293.17104     -40708.823      366.15873     -40342.665      186.64772      121420.21      0.10115226    -0.15924964    -0.10439475   
     17600   305.46147     -40711.079      381.50898     -40329.57       78.972864      121838.65      0.10003429    -0.1569754     -0.10388362   
     17700   307.52928     -40702.713      384.09159     -40318.622      213.86388      122259.1       0.10104876    -0.15916062    -0.10419551   
     17800   317.66107     -40709.243      396.74578     -40312.497     -65.71649       122737.52      0.10070277    -0.1580769     -0.10451218   
     17900   320.37536     -40710.913      400.13582     -40310.777      18.526544      123171.82      0.10161835    -0.16011687    -0.10470896   
     18000   322.89013     -40715.751      403.27667     -40312.474     -149.02219      123512.18      0.10110802    -0.15862792    -0.10503916   
     18100   317.55654     -40714.642      396.61523     -40318.027      146.96515      123860.32      0.10166162    -0.15998056    -0.10500915   
     18200   310.54176     -40713.231      387.85405     -40325.377     -91.082898      124287.95      0.1013445     -0.15881911    -0.10550963   
     18300   300.051       -40707.234      374.75152     -40332.483      96.620771      124713.01      0.10244129    -0.16104028    -0.10602352   
     18400   287.11168     -40698.009      358.59084     -40339.418     -37.019743      125050.47      0.10186876    -0.15953472    -0.10618788   
     18500   300.65929     -40720.517      375.51125     -40345.006      106.04129      125395.06      0.10213176    -0.16047645    -0.10579971   
     18600   302.92278     -40728.019      378.33826     -40349.681     -150.4978       125844.27      0.10188207    -0.16003664    -0.10560042   
     18700   294.95765     -40722.081      368.39013     -40353.691     -240.85886      126277.5       0.10239604    -0.16111553    -0.10579369   
     18800   290.95017     -40720.269      363.38495     -40356.884     -159.47909      126600.51      0.10184706    -0.15982659    -0.10575794   
     18900   276.29259     -40704.121      345.07823     -40359.042     -32.323884      126935.47      0.10175175    -0.15976231    -0.10555237   
     19000   288.81494     -40721          360.71813     -40360.282     -67.552352      127352.08      0.10199107    -0.16003701    -0.10592696   
     19100   277.7967      -40706.668      346.95681     -40359.711     -72.480269      127728.3       0.10185679    -0.15963817    -0.10602265   
     19200   291.64726     -40722.339      364.25559     -40358.084     -2.2407319      128022.54      0.10183424    -0.15976417    -0.10579751   
     19300   291.31592     -40719.893      363.84177     -40356.051      111.25451      128361.07      0.10137643    -0.15868699    -0.10577056   
     19400   291.7711      -40717.659      364.41026     -40353.249      136.79922      128777.08      0.10218695    -0.16045427    -0.10599301   
     19500   287.86883     -40708.208      359.53649     -40348.672     -49.755155      129168.25      0.10154897    -0.15920931    -0.10563528   
     19600   302.38647     -40720.659      377.66843     -40342.991     -72.956747      129515.95      0.10158648    -0.1600525     -0.10469382   
     19700   306.46904     -40718.689      382.7674      -40335.922     -278.03619      129885.88      0.10054375    -0.1580308     -0.10409274   
     19800   310.09075     -40713.479      387.29076     -40326.189     -22.854073      130281.05      0.10121264    -0.15980973    -0.10387576   
     19900   319.42227     -40714.259      398.94545     -40315.314     -100.36941      130649.9       0.10040934    -0.15838304    -0.10324923   
     20000   309.90917     -40693.426      387.06398     -40306.362      82.811327      130967.6       0.1004952     -0.15932318    -0.10233162   
     20001   311.18833     -40694.965      388.66159     -40306.303      79.895478      130970.54      0.10043665    -0.15919663    -0.10231417   
Loop time of 28.2207 on 8 procs for 20000 steps with 420 atoms

Performance: 15.308 ns/day, 1.568 hours/ns, 708.700 timesteps/s, 297.654 katom-step/s
99.4% CPU use with 8 MPI tasks x 1 OpenMP threads

MPI task timing breakdown:
Section |  min time  |  avg time  |  max time  |%varavg| %total
---------------------------------------------------------------
Pair    | 10.709     | 14.283     | 16.645     |  46.6 | 50.61
Neigh   | 0.049077   | 0.058784   | 0.070933   |   2.8 |  0.21
Comm    | 0.88126    | 3.2216     | 6.7633     |  97.0 | 11.42
Output  | 0.0069406  | 0.0072898  | 0.0081796  |   0.4 |  0.03
Modify  | 10.533     | 10.582     | 10.627     |   1.1 | 37.50
Other   |            | 0.06794    |            |       |  0.24

Nlocal:           52.5 ave          86 max           6 min
Histogram: 1 0 1 1 0 0 1 2 1 1
Nghost:        367.125 ave         426 max         300 min
Histogram: 1 0 1 0 1 3 0 0 0 2
Neighs:           1696 ave        3548 max          31 min
Histogram: 1 1 1 1 1 0 0 1 1 1

Total # of neighbors = 13568
Ave neighs/atom = 32.304762
Neighbor list builds = 157
Dangerous builds = 0
=== NPT EQUILIBRATION COMPLETE ===
System init for write_data ...
System init for write_restart ...
=== PHASE 1 COMPLETE ===
Total wall time: 0:00:28
