LAMMPS data file via write_data, version 4 Feb 2025, timestep = 26080001, units = real

420 atoms
3 atom types

-6.991740694938642 56.99174069493861 xlo xhi
-6.991740694938642 56.99174069493861 ylo yhi
-3.495870347469321 28.495870347469307 zlo zhi

Masses

1 1.008
2 12.0107
3 15.9994

Atoms # charge

206 3 -0.1561510779993775 -2.187009193165239 -5.076109568898073 -1.647523286856902 -1 15 14
338 1 0.08340698140980203 -1.8439102524941289 -1.7472979269018152 -2.244442423403904 2 -3 -7
20 1 0.08391624721956911 -4.127923438409154 -2.237597433286222 -0.7013445590323383 2 -4 -7
205 3 -0.1156853313654071 -3.0919686765723897 -5.907640487595836 -1.9319936270930953 -1 15 14
337 2 -0.113417091690309 -2.7313048713805825 -2.2941027928619926 -2.5861232607246443 2 -3 -7
123 2 -0.2582186157531094 -3.5206971798416826 -2.9015152020344686 -1.3167668139478073 2 -4 -7
21 1 0.1490290430586845 -4.164404245349646 -3.7574677103667997 -1.7764221095978845 2 -4 -7
339 1 0.1297291875493757 -2.4071645497886296 -3.026263739007206 -3.2143684674566586 2 -3 -7
124 1 0.1975667010348187 -2.927998753621646 -3.4951831333002565 -0.7243374480940862 2 -4 -7
347 1 0.07044923550609722 -5.298464390727252 -1.763482641131706 -1.5287387148329539 2 -3 -6
301 3 -0.08104688306722291 20.697353998832295 -6.383806149230817 5.291293608005689 9 2 15
221 2 -0.08357299663467521 1.432424577017206 23.303064701855583 1.6260127362739027 -4 9 -10
220 1 0.06908084834933943 1.5534573087360786 23.37630780076784 -0.7986930162541356 -4 9 -10
343 2 -0.09444907920031274 -4.321935430452498 -0.09352359281307387 -2.679600578126415 2 -3 -7
345 1 0.07521837314883188 -3.7401963571981374 0.3625175147900156 -1.8220890840508583 2 -3 -7
346 2 -0.192855736984981 -5.5435031726772594 -0.8586897333428694 -2.169090413853048 2 -3 -6
348 1 0.09086072391290878 -6.359884702968966 -0.37397578496898193 -1.6675056759877922 2 -3 -6
349 1 0.08682484344459104 -5.93169191972111 -1.209798243043473 -3.1188226569048894 2 -3 -6
91 3 -0.0817860299582826 18.291630323501717 3.6004809278042407 2.6746123010950824 2 -1 3
90 3 -0.08688988117177712 19.115993872779885 4.398120820023769 2.218774011175422 2 -1 3
297 3 -0.09253639381650308 17.112567109489067 18.37409426646551 -2.20930980557652 4 7 1
216 1 0.06073718675394689 2.4152463814439904 21.212497519216463 -1.0663254872467058 -4 9 -10
340 2 -0.1156273248768247 -3.4571958899223203 -1.2085256023629192 -3.4663062952641357 2 -3 -7
319 1 0.113489217564123 19.5544951838686 5.887217651814244 -3.3016385341952676 1 -2 17
227 1 0.09977798194583332 -0.6518907599098022 23.47584900167131 2.343020833290958 -4 9 -10
366 1 0.0878054711434226 9.060723705907224 14.459344975678304 -1.3327884428286116 -9 1 14
363 2 -0.1936942364069802 9.792614303393785 13.720935653792472 -0.8554623060035251 -9 1 14
365 1 0.09232838143683075 9.393829353501438 13.421951790060294 0.16335079278207743 -9 1 14
364 1 0.09341815659875877 9.963728534375763 12.778306438408658 -1.5089977921774322 -9 1 14
218 2 -0.1104817469291644 1.9468601526984621 23.021894898498577 0.18206196859345547 -4 9 -10
224 2 -0.2304700064131478 -0.15035769550719885 23.379943130726527 1.385996801553562 -4 9 -10
358 1 0.07623934645733856 12.415148395911947 12.913959415450485 0.3677611325827771 -9 1 14
360 2 -0.1141140342838854 11.118574083108308 14.49036321658525 -0.5434417205563211 -9 1 14
359 1 0.07426957254622173 11.763855422098692 14.047562794162205 1.5545439084947101 -9 1 14
357 2 -0.1170890871654431 12.142307034111406 13.982998488708478 0.5790338693726426 -9 1 14
257 1 0.07490044079650829 10.761235561419946 15.403105222890224 -0.1684260059600976 -9 1 14
361 1 0.07824179143717033 11.615930896583327 14.771749247627415 -1.3741379277150376 -9 1 14
352 1 0.09762158651155339 14.561032379076055 13.441958082186282 1.5787922220086017 -9 1 14
353 1 0.1034487926522115 14.904686934972021 13.272225128741876 -0.16876076428062275 -9 1 14
350 2 -0.2439732390873355 14.673255549440745 13.981978501415181 0.6671211694288064 -9 1 14
351 1 0.1249025157807568 15.372451474311783 14.710228527390848 0.8406282929511306 -9 1 14
250 1 0.07598384841149403 13.46270471778971 15.597122219087197 1.172998628570843 -9 1 14
296 3 -0.08245475982985234 17.531497768815612 19.449032219824954 -1.767268986630076 4 7 1
356 1 0.0851258054798964 13.473606227629476 15.293827281029351 -0.5916591698928887 -9 1 14
354 2 -0.1069532288766721 13.402217092730096 14.863590279522185 0.389012353531751 -9 1 14
222 1 0.06026822306905924 1.813225796250895 24.230982439447185 2.140070796320043 -4 9 -10
226 1 0.09392618870373351 -0.5503308112039496 22.584202119551417 0.6363768250903281 -4 9 -10
225 1 0.1150499990027622 -0.19394588686876646 24.29936399054634 1.0139990918045474 -4 9 -10
219 1 0.08027184643245296 2.987989430030284 23.31053920774291 0.32347931867754376 -4 9 -10
223 1 0.06527202771132391 1.497792836270905 22.436956250253548 2.3783229777258925 -4 9 -10
217 1 0.06499527884906511 1.1082303679425847 20.988182118219843 0.05397694681318151 -4 9 -10
215 2 -0.08704639376842699 2.0927398272685886 21.45340326354747 0.0004677048855321795 -4 9 -10
213 1 0.1071481764168387 2.9457245674827095 19.831017875170968 1.0538897162682217 -4 9 -10
214 1 0.0959582276149796 4.116125934406071 20.992684232281068 0.36533430687651447 -4 9 -10
211 2 -0.2198762790852037 3.1690588986921764 20.817981061268586 0.9236723061017943 -4 9 -10
212 1 0.08425513659496542 3.2479038509716918 21.20254473789871 1.9772923878379673 -4 9 -10
344 1 0.07270665318781572 -4.506183564887495 0.6168273071745155 -3.4566892137012175 2 -3 -6
202 3 -0.2141355876472756 11.23581405708632 -5.378559965659394 21.93458990661691 -17 -27 36
174 2 0.05974277925389788 10.574650897107077 -5.69932577189535 20.880404627096222 -8 -11 23
414 3 -0.08469272805178585 16.97194878257654 11.21265361602688 22.532556453626285 2 15 -35
36 1 0.08270078576823912 18.757502698681407 -6.19352522984953 21.730890862730153 -2 -7 10
37 1 0.08304712973515851 19.08731900757843 -4.632019771331653 20.75647703831856 -2 -7 10
35 2 -0.182878314719036 19.331219702396417 -5.767704813616008 20.83026099902679 -2 -7 10
38 1 0.08865161537795593 18.852479166146328 -6.357577565514256 19.98154245166067 -2 -7 10
87 3 -0.08284771121147663 6.149853423323678 18.403093750629964 16.271399457357358 -4 3 19
86 3 -0.08284771121147697 7.136399644222501 17.85982882153855 15.677217923365284 -4 3 19
304 3 -0.08527292848518761 5.445567841690575 -1.3085679550288731 20.656744351232074 7 4 -1
305 3 -0.08120464247579998 4.841420336281846 -0.31959073091330786 21.07574893160904 7 4 -1
175 1 0.07129865655081277 9.460141545724406 -5.873827844033687 20.809895469340095 -8 -11 23
44 1 0.08723872449751244 20.84117641591539 -5.050046219499069 22.90587619633191 -2 -7 10
43 1 0.07656634308833893 21.25675541016614 -3.887418394647053 21.44251260832235 -2 -7 10
48 2 -0.1996911961431997 22.939780236797034 -5.941457470267786 23.572901971109992 -2 -7 10
49 1 0.0901071013031278 22.248877115425902 -6.75433341528287 23.78318213318948 -2 -7 10
50 1 0.09122508351741707 24.015408337677336 -6.323442709572195 23.633907748005253 -2 -7 10
42 2 -0.1230369665555512 21.31709811558419 -4.90501666508275 21.965579215802332 -2 -7 10
51 1 0.08553096623492454 22.88842588837555 -5.245279762464237 24.5153020649023 -2 -7 10
341 1 0.06222046656539335 -2.622671983136643 -0.8059132827887835 27.933999321082016 2 -3 -7
46 1 0.06746352525538861 23.510704435790053 -5.153401237305756 21.571184042363978 -2 -7 10
45 2 -0.03961453768643047 22.713219917181082 -5.241940176539123 22.277436354497297 -2 -7 10
41 1 0.06479269539830756 21.252011055397897 -5.5056104080341495 19.749311702927702 -2 -7 10
39 2 -0.08761215198440395 20.859529860873884 -5.892332362085827 20.76837927374221 -2 -7 10
145 1 0.07298078026606843 21.378335364818376 -6.87618890179095 20.85474871761299 -1 -7 10
325 1 0.06699381777529548 21.560567912402192 7.763637359088054 27.57101341248255 1 -2 16
332 1 0.1085459575905508 24.260346119152945 8.543811466324538 26.048112032078766 1 -2 16
324 1 0.07974817446826424 21.62462900092843 7.216948804148621 25.776040836424194 1 -2 16
323 2 -0.1196613914014317 21.84133064268113 6.960018226371377 26.780637858845488 1 -2 16
327 1 0.07114385309552208 23.603160890627734 6.11290615014029 25.920881490944492 1 -2 16
326 2 -0.09277921309245922 23.4541097942589 6.743206789644041 26.807925947915102 1 -2 16
330 1 0.09581231504934803 23.551713112597707 8.59421605500093 27.799968315424582 1 -2 16
132 1 0.07307519318936305 -4.143791239971025 -1.6166149751605574 27.825826831141857 2 -4 -8
329 2 -0.21300199852343 24.157532669635543 8.098244906351834 27.093915454772493 1 -2 16
328 1 0.06854401153363393 23.438274768468318 5.988128862380236 27.64918222430089 1 -2 16
413 3 -0.08412997223149885 16.206453703953173 11.631124113295444 23.471447074887923 2 15 -35
317 1 0.09026846577267074 19.167375852826247 6.838513438814249 27.200276524718102 1 -2 16
320 2 -0.1291047666625145 21.113980697001388 5.646719594975269 27.228554679846784 1 -2 16
322 1 0.1011534161209865 20.80350743865592 5.1473916555210275 26.429061298260297 1 -2 16
176 1 0.07716700708745014 10.950526299523869 -5.329955024061238 19.964532567083264 -8 -11 23
316 2 -0.222512935078216 19.571937448243872 5.815253357709619 27.6471020672893 1 -2 16
318 1 0.09019312683392056 18.795299093982525 5.054281280577935 27.403051480846575 1 -2 16
321 1 0.07831270962242087 21.524937204371568 5.086974981783714 28.063558374321456 1 -2 16
186 1 0.03572905674940141 23.030465363925764 42.50231723176873 11.601885820756342 10 -22 15
253 1 0.0606911656524254 -6.053165139308909 33.81961082269654 2.240128274760132 -7 2 28
300 3 -0.08280836205313849 20.412772700518417 56.4323892283332 5.358475462586772 9 1 15
260 1 0.110921559083832 -6.271252093348935 35.85269849152779 -0.132748036967508 -7 2 28
55 1 0.02545476132556718 23.82946221269412 36.67558416785613 5.699535781480205 -12 23 7
254 1 0.07676548593893398 -6.691161797813028 35.258921787430616 2.7569753437583797 -7 2 28
143 1 0.09686365495318118 17.337881339502285 49.152767730750384 4.8175881095534345 11 3 -13
258 2 -0.2157913465854958 -6.610699073694274 34.81812309349148 -0.09761230631246753 -7 2 28
383 1 0.03267830712192182 23.257409632652283 37.00793867331003 5.947506061198305 -17 12 -15
140 2 -0.2215686573168561 16.879081332995867 48.32669583276904 4.393046352723754 11 3 -13
144 2 -0.093949564134391 16.638808546648715 48.39969193618543 2.7710193988477436 11 3 -13
146 1 0.07223372629308022 16.259058971305993 47.478996015285944 2.222138473907977 11 3 -13
47 1 0.08073469838885065 16.041689849932997 50.42153484462946 0.7366494806461753 11 3 -13
151 1 0.08000989484209431 14.72252254528896 49.28333995274027 0.6640226235586145 11 3 -13
40 1 0.07049468413012043 17.65178490497623 48.61186763494726 2.3066780022564237 11 3 -13
150 2 -0.1049290304963723 15.16619144608429 50.11974669770677 1.2381641983877814 11 3 -13
147 2 -0.0968056626301444 15.575616654562968 49.52189807095902 2.7058902144978947 11 3 -13
148 1 0.05683169833744722 14.57185632637811 49.343232158693844 3.3117001453933153 11 3 -13
153 2 -0.1996287898544566 14.076273224513793 51.179894107202664 1.4876780004341514 11 3 -13
149 1 0.06908430965944148 16.146805275080357 50.283227480550615 3.2884987243955752 11 3 -13
154 1 0.0876854326041635 13.065453498521551 50.838054495473415 1.6992065472583275 11 3 -13
155 1 0.08747741275611233 14.242095151056041 51.772107659300026 2.370848819604959 11 3 -13
156 1 0.09245199741388443 13.98526355384148 51.91664001232656 0.6299699340125909 11 3 -13
142 1 0.09412549164832659 17.574678290558204 47.49686865513085 4.753338005624466 11 3 -13
141 1 0.1004746863161152 15.878567283458745 48.18119682003106 4.7655088410753805 11 3 -13
408 3 -0.0840293579348137 -4.0007513586488574 40.56235492037539 7.04524091940091 4 -2 8
407 3 -0.0837992385540296 -3.159276037176056 39.693657590321756 7.522019830965979 4 -2 8
188 1 0.09117650209980013 23.104496279572274 42.36469855803247 12.478268921803778 10 -22 14
259 1 0.07561080707057723 -5.633517193959847 34.28634608342628 0.033598429366851666 -7 2 28
378 1 0.1375077164699176 8.465297733299774 41.13905874012974 12.133292475429352 1 4 -11
307 3 -0.08315232989491994 22.55385198016029 28.668973450294306 15.024420105723543 -10 -6 11
306 3 -0.08374634361494221 22.260003185086408 29.836610328860754 14.50290743111386 -10 -6 11
199 3 -0.09243292953597118 1.815656585072297 36.65029672987681 20.66680145778556 2 -5 -13
241 2 -0.224124951110155 11.30940095475738 37.37247714744057 13.666036136196073 10 9 17
244 1 0.1074254181024331 12.077047187411202 38.01076625059856 13.699330219403562 10 9 17
242 1 0.07582295401264369 11.644229657777746 36.73357123865224 12.75075877780769 10 9 17
243 1 0.132879265370951 10.285955495529375 37.74008995238136 13.394510188681693 10 9 17
125 1 0.1101744307210166 15.30299780439885 34.796250967315785 14.095963359863465 11 8 16
235 2 -0.1220118941015257 13.124761871069062 37.00766030831893 15.44478749208027 10 9 16
234 1 0.04591372940275464 13.86840092276054 36.85314843415524 13.221740970689366 10 9 16
233 1 0.06922923291004206 15.027833996437643 37.24425028659077 14.384740717457985 10 9 16
232 2 -0.07905906584168375 14.142245510786426 36.628012031778354 14.270986207772337 10 9 16
19 1 0.09162527323722094 13.636477529575936 34.63412807708926 13.928815523967446 10 8 16
238 2 -0.09540401737388382 11.683659325350318 36.66068163071982 15.134677373210168 10 9 16
240 1 0.07572065025491123 11.431842766763545 35.627165365900446 14.954970481550141 10 9 16
18 2 -0.2361003482210604 14.429889135320623 35.09836060963749 14.533417126939623 10 8 16
126 1 0.09777036956776004 14.410835203629297 34.67941256807877 15.477831583590318 11 8 16
58 1 0.09550859208437817 -2.833443172814358 41.099845766294074 17.866963872509636 -2 15 -12
56 2 -0.130166899536082 -2.8557437691977516 42.0331578237576 17.30519016484397 -2 15 -12
52 2 -0.1105131228054236 -1.7734528558144915 42.77805136911558 17.015626600695608 -2 15 -12
57 1 0.09723272342296532 -3.8711314738735645 42.30931062619906 17.149564721139345 -2 15 -12
54 1 0.0851602639450883 -1.7015961952658698 43.61588231295761 16.232697402585085 -2 15 -12
53 1 0.09216773628486993 -0.7588545001704339 42.411487247975735 17.198514433316465 -2 15 -12
375 1 0.09447324122896908 9.019874017767073 43.54112682446923 12.852699443757668 1 4 -11
298 3 -0.1162360887514185 7.070956300778599 38.22464861741126 13.274808583872797 -2 21 18
420 3 -0.08395132250941076 15.441300542555123 50.06022583632789 25.15385293762023 -8 -3 -1
374 2 -0.1162333449544906 9.702753268061336 42.71067710989882 12.96080551444488 1 4 -11
308 3 -0.0844617236777907 -6.788657819989138 36.58721881572388 26.715373925825038 -14 1 14
377 2 -0.128681513682586 9.414260989705244 41.3928949141573 12.541632811985123 1 4 -11
27 1 0.07365138199835879 13.136980966279138 37.99026885547542 15.832349433175677 10 8 16
236 1 0.07710793329351498 13.417914459259258 36.36147588479798 16.22722240617036 10 9 17
239 1 0.07544128301224219 11.042166110111376 36.81159225260598 16.035603077521245 10 9 17
396 1 0.1059950224875623 22.619241186147278 35.887756952987715 24.90193579885705 3 1 -13
376 1 0.08064358035210015 10.77846219039302 43.02279761186355 13.244114601098795 1 4 -11
419 3 -0.08336474424508838 14.730396281070844 51.106383680239794 24.91133632260872 -8 -3 -1
182 1 0.4565729815378786 3.2570852270243673 34.69801165812313 21.9904418685809 -12 -1 5
198 3 -0.08369148909391425 23.872555805799358 54.00255633905792 14.612633462054694 -5 -7 -3
309 3 -0.1142543875747684 -6.722795542114936 35.35381713533706 26.455813543733544 -14 1 14
200 3 -0.1614325298022969 3.0540202539680954 36.53233725780154 21.05103732220966 2 -5 -13
368 1 0.3187997401786569 3.877566475191805 34.201624651785146 23.360976845333767 -13 -2 -29
402 3 -0.5879928262554824 3.1205151690625086 34.20317535744716 22.751279280105667 -10 -21 -4
312 3 -0.164100403276615 18.66445986491681 33.73487269706352 23.773987158657285 2 4 14
313 3 -0.1289071366717991 18.588999768002576 33.42237889648056 25.028447115294234 2 4 14
385 1 0.1485189356905125 19.396448595916752 34.85825680947401 21.635364242829105 3 1 -13
399 1 0.2079850642099859 19.64244546011828 35.2582525651871 25.00810113518401 3 1 -14
398 1 0.09680370122267785 19.83509219559055 36.98989105088676 25.439180591593807 3 1 -14
387 1 0.1023587660485977 18.325923171864307 36.23821654484879 21.024205004065948 3 1 -13
393 1 0.06500469840030992 22.090960738502794 36.22763670621892 22.369475024568363 3 1 -14
392 1 0.08913833043471567 21.329324910965482 34.98089286872678 22.697816012138436 3 1 -14
391 2 -0.1196153131485551 21.26273370634257 36.02235870922538 22.961613443314256 3 1 -14
397 2 -0.2886502069730926 20.344297688596267 36.03744769565841 25.39807684961923 3 1 -14
389 1 0.07114649443163595 20.21273018035083 37.26057229149787 21.532889768338865 3 1 -13
394 2 -0.0982613160391648 21.66501264276209 36.291610902913725 24.52908117565901 3 1 -14
395 1 0.08070228445157868 21.774374850425136 37.332550677182816 24.692594201969012 3 1 -14
384 2 -0.256273035408378 18.909621928954426 35.82329991397555 21.857556483382314 3 1 -13
388 2 -0.08544014341891995 20.020412355236502 36.74072703159899 22.42437279532685 3 1 -13
390 1 0.04887183447091725 19.686992934168533 37.46595909143125 23.259814808709862 3 1 -13
400 1 0.1496770573919806 20.62866847096474 35.74632586994262 26.345299408270577 3 1 -14
386 1 0.1551061457029635 18.298104919035136 35.763638361257826 22.805435407692855 3 1 -13
197 3 -0.08158483632667923 23.786977069527904 52.86664747021024 14.136684614480313 -5 -7 -3
299 3 -0.08893801681545155 6.046330143675181 38.17959340025259 12.54864988560184 -2 21 18
209 3 -0.112433051007436 24.995512928408456 36.52778866589499 27.633440848368824 0 10 -13
379 1 0.07522565171836454 10.269079630103276 40.60227738025361 12.511034810241132 1 4 -11
11 2 -0.1135427046480033 29.79615742197079 6.159237100028469 5.756656166914961 -10 -14 -34
13 1 0.1292608679028533 30.04277279051886 6.414242533497424 6.8601859501219415 -10 -14 -34
172 1 0.09339447808987783 36.46824850306941 18.327702907689233 5.654727971409754 -7 9 -32
105 3 -0.07885490066884396 36.58806143482886 6.944678534911261 -3.086444851728985 3 -12 -5
415 3 -0.08921412329981959 34.396255227420596 5.444309783947714 3.90578397464543 4 0 -14
416 3 -0.08222971697414208 35.36278743711947 5.257043867665606 3.0472557792787724 4 0 -14
192 3 -0.08229506540790815 41.34700947964953 12.38664231658354 -1.7482142891283603 12 11 5
191 3 -0.08243811605618426 41.71365059468928 12.308253142961478 -2.965574811243328 12 11 5
418 3 -0.08276835742397307 52.14121266154249 17.274134602453323 4.941203795364118 0 5 -3
417 3 -0.08250314662990818 53.25283181174358 16.68941650497631 5.019419582926179 0 5 -3
173 1 0.08712599428948029 37.92407726819628 18.875185753872497 4.685293638310004 -7 9 -32
171 1 0.06744594428476368 37.786232193194934 18.894213285354407 6.3986652322644595 -7 9 -32
162 1 0.0593476863207112 37.48460891321714 22.449509892351152 7.306133250545254 -7 9 -32
157 2 -0.221799790349216 35.79330930704841 23.236098765241294 8.18470994629844 -7 9 -32
158 1 0.106411423065192 34.76242928542189 23.044359733908063 8.475860577924973 -7 9 -32
291 1 0.05001156483580019 41.166445309647884 17.22378495141525 9.697991381509919 5 4 -5
121 1 0.1305640117609383 30.178118705992144 5.70696707807251 10.89810547856944 -11 -2 4
120 1 0.1297543156855815 30.36705496325222 4.649574806110944 12.181794080875846 -11 -2 4
119 2 -0.3218954867975217 30.82947661589209 5.416157436580338 11.69465278863983 -11 -2 4
122 1 0.2392616566508425 31.70952048927039 5.020949495979518 11.209805258333896 -11 -2 4
96 3 -0.09505598333504768 34.05689985857893 4.804862904485632 11.006879444063557 2 -11 5
97 3 -0.1201353577989479 33.75540784537645 3.7748074845393353 11.695030863224396 2 -11 5
14 2 -0.1317068149927673 30.61431724288203 6.703290233800912 4.824193901617258 -10 -14 -34
12 1 0.08472439954071839 28.936352542410884 5.46996647379658 5.4905044135495125 -10 -14 -34
405 3 -0.1169884886842411 32.41334157452545 6.728923053933778 8.242089894370018 -3 -11 24
406 3 -0.1263996815557639 32.056722783905286 5.621484975167308 8.715955010209504 -3 -11 24
160 1 0.1048115744139468 35.87218330410967 24.292410661525153 7.97570650874163 -7 9 -32
108 1 0.08671194673358867 29.11611509969448 10.064258052095713 11.868342130624347 -11 -2 4
161 2 -0.08728037069131354 36.4063131138036 22.456862179728123 7.025740677282534 -7 9 -32
15 1 0.1408778623216747 31.455725294824415 7.413853559728768 4.9687142310155465 -10 -14 -34
16 1 0.1083700689909784 30.444777558679657 6.402858352089341 3.7802457127447395 -10 -14 -34
65 2 0.2161610057850181 56.85228698686112 24.55439532730309 8.889037543219526 10 14 -19
114 1 0.0693510959205 30.3390640225305 8.065091834798228 10.970875903398285 -11 -2 4
113 2 -0.1226727407588154 30.98654152247417 8.080286230777205 11.782581665679343 -11 -2 4
115 1 0.1354327330714179 31.86763842883372 8.07589530007428 11.120298998652023 -11 -2 4
166 1 0.05544106693853811 36.262487904963194 20.468071037255818 7.87272527724102 -7 9 -32
292 2 -0.1990288105023459 41.46213696695986 18.486921871467047 11.52987059967239 5 4 -6
295 1 0.07883603027154934 40.48215357230299 19.029727582282405 11.366327271795047 5 4 -6
93 3 -0.08320764768288133 52.72173782752763 5.601317052525577 7.803099800041778 6 -6 -33
92 3 -0.08320764768288041 51.76506026926387 4.904012783497698 7.27902734347847 6 -6 -33
294 1 0.09325877852733762 42.312037774557695 19.16141585435628 11.290284001319938 5 4 -6
279 2 -0.1913795553164944 44.191611240331376 15.249543580240802 9.093872337846822 5 4 -5
280 1 0.08731644715887907 44.99374758852533 15.002463687134501 9.871376417507705 5 4 -5
285 1 0.06560979200953515 42.75937459347772 16.947041898396048 8.675516944928864 5 4 -5
284 1 0.0684454792218404 44.34771084251615 17.47979331925819 9.32329178249629 5 4 -5
283 2 -0.08424030408829786 43.54588911336574 16.632855963765415 9.329411543581267 5 4 -5
282 1 0.08396087269049352 44.5361719879777 15.04409664442753 8.006960782365963 5 4 -5
281 1 0.08623299494686103 43.50381703992669 14.452871212955934 9.027433587620715 5 4 -5
289 2 -0.07425020595413845 41.49635100081667 17.14357717326141 10.781876648819605 5 4 -6
98 3 -0.2562042244729674 56.84066084423356 24.011332127927854 9.863783881197566 15 15 -29
287 1 0.06608701419517156 43.04867568831081 15.371995749837339 11.092335945878624 5 4 -6
288 1 0.07188794350090505 43.590733280822626 16.94057258932927 11.596783523852398 5 4 -6
286 2 -0.10520175128368 42.97458951732137 16.4901107085922 10.809255876677602 5 4 -6
290 1 0.06547329561700181 40.6865601268264 16.42376384662887 11.134257769744398 5 4 -6
163 1 0.07195968501330641 36.35454944435387 22.97755544101615 6.078128242419491 -7 9 -32
165 1 0.07164055786703133 34.841962937533886 20.692176646724185 6.961517843873482 -7 9 -32
170 2 -0.1909535856964686 37.19703666036666 19.145257480202133 5.480851829140835 -7 9 -32
159 1 0.08724687499667617 36.3124351336077 23.06186156681835 9.12800149840265 -7 9 -32
164 2 -0.09430464845651991 35.92362073874511 20.93455999203795 6.848038841735397 -7 9 -32
168 1 0.07909464906636263 37.50322442928402 20.997944914901375 5.334262771997996 -7 9 -32
169 1 0.08110888337037261 35.875831714826354 20.80654936665029 4.661343617764821 -7 9 -32
167 2 -0.1036799727350464 36.55196735700321 20.587709149883704 5.489431281794123 -7 9 -32
187 2 0.04998279302745336 36.839658967164596 -5.2399673312151105 20.05107882061704 16 0 -1
193 3 -0.2085140654589455 36.25054851191539 -4.903281979891257 18.904902444143783 15 -14 -15
183 1 0.08944396066297783 37.94342631648945 -5.159142123172757 20.013165358246706 16 0 -1
109 1 0.07517929220969119 28.620250726446 8.82287661010242 13.179541610375852 -11 -2 4
117 1 0.04976929306988041 30.49305124561586 6.718699981772427 13.521390577385088 -11 -2 4
181 2 0.1957955833562491 32.10499478000796 15.077865413981934 25.43009726344033 -6 22 11
112 1 0.1075988015117648 31.136814829138448 8.94787940596669 13.76878294799425 -11 -2 4
17 1 0.02453752884546262 29.092181196682105 4.769476400118701 19.53737788362136 6 5 -4
66 1 0.04318955152218368 28.663017662395614 4.496806634438218 20.31703188181653 5 22 20
89 3 -0.08291480039495611 55.11133700016743 12.756403903015977 16.369008410437285 13 -12 8
293 1 0.09287810857910769 41.35747535306433 18.340022058613876 12.61415882205797 5 4 -6
184 2 0.2055455270913935 35.93982865617585 -5.530469150975802 21.153402506976033 16 0 -1
201 3 -0.2342940303030594 35.290672284388116 -5.393073064361637 22.193481349618104 -12 -10 52
95 3 -0.09276344161268632 29.21056255687144 8.706062602120122 25.02412548819279 9 10 -35
94 3 -0.08071958800754298 30.397315600301166 8.417840050889001 24.61446478280817 9 10 -35
67 1 0.2874232508499031 28.97877682021162 18.524890897554364 23.037131512856554 -8 9 8
194 3 -0.5297120421251 29.26417383489717 17.706385422815266 22.46278069844519 -8 3 4
185 1 0.3436064419452809 29.853858965690726 17.110248324252332 22.898185254996598 -34 -2 -85
401 3 -0.2655361727412039 31.0921046399113 15.028715417734483 25.906614004492553 -7 -1 4
208 3 -0.0818784267393754 50.0692361812098 20.145257990239543 26.775372075330015 21 -6 -24
88 3 -0.08291480039495611 54.27505040940289 13.717518069636254 16.465011620389074 13 -12 8
331 1 0.1080406783193655 25.22351915038599 8.085378192793323 27.557858872147456 1 -2 16
118 1 0.1144072701080509 31.98811951352028 6.32883652279354 12.900406469359918 -11 -2 4
110 2 -0.1402061301593614 30.929261935271747 9.31720480042166 12.850290780688644 -11 -2 4
207 3 -0.08187816755431268 49.71249524325291 20.09183272020113 27.93696729863273 21 -6 -24
107 1 0.100856078838982 29.28703768079659 10.437094873610901 13.535817254421854 -11 -2 4
104 3 -0.08061080197034179 35.71962126266932 6.329678902579531 28.245450765064003 3 -12 -6
106 2 -0.2095584404341132 29.39021802819869 9.68029023209802 12.872779709929114 -11 -2 4
116 2 -0.08637846984480667 30.98532291752102 6.742353479118306 12.576556056620515 -11 -2 4
311 3 -0.1071883117801317 34.61150429877433 10.526159872669878 12.95912574327168 -6 14 -17
310 3 -0.08619800415163081 35.35921191990914 11.502605639191385 12.69274979761711 -6 14 -17
111 1 0.1253994584539058 31.344026484814684 10.238369956963568 12.556003386798155 -11 -2 4
315 3 -0.08473764579246829 36.26283346762711 28.713422442402344 2.076354531041337 -28 -6 -7
314 3 -0.1023086473290085 37.264642153271126 28.31072662913758 1.3701370598127516 -28 -6 -7
203 3 -0.1398491758592783 44.97278450155302 30.457422980023676 0.21048712290734803 6 0 9
204 3 -0.09649675762569015 45.36487149931591 30.760775512487054 -1.0056539817667198 6 0 9
63 1 0.09243518223708691 42.43197131353863 31.721230109549975 2.8876534108622036 -11 -16 36
273 1 0.0732684278082173 51.461169638313095 37.145574801806504 4.267974839483796 -3 -4 -1
62 2 -0.1349629130885118 43.06592539819235 31.781553840225115 1.9377254100094656 -11 -16 36
152 1 0.0789234298552885 40.23418957341115 26.56614761929696 1.5136871411773007 -22 -35 30
1 2 -0.1741226907658871 55.1778817033863 32.406078321924284 -2.2453146987372543 -5 -13 0
275 2 -0.2121487307857849 52.469004181636414 35.85300562554745 3.1282016397904484 -3 -4 -1
303 3 -0.1325132781212706 53.447411589643814 35.15769228272368 -2.786029304839341 12 0 17
251 1 0.07430503146823619 56.74056414374046 33.650553812533566 4.578812067230449 -8 2 28
272 2 -0.09036727484457188 51.49842327885672 36.10659390265177 4.335114511174017 -3 -4 -1
256 1 0.08856636051787625 55.34026438265296 34.811194087668525 1.0346839048714556 -8 2 28
103 3 -0.09830688646959967 25.817017151374767 41.02610927199556 12.214086321442595 -3 -11 14
274 1 0.06175459644337061 50.44074743992378 35.82076897150536 4.082254236790092 -3 -4 -1
277 1 0.101172624554866 52.71809978126431 34.83444704561089 3.0265753873415466 -3 -4 -1
355 1 0.04137561891007626 55.22052682545791 34.226868163000454 3.8466761426547986 -7 2 28
369 1 0.1261047657513538 26.45286087465848 40.735943296921455 0.23648559775535735 0 9 -10
101 3 -0.09525774329623563 30.469012920676853 41.45127699620102 1.1304316494873876 -10 -4 -5
367 2 -0.1325103540432378 26.52007846222229 39.72835486527611 0.026475382705803685 0 9 -10
249 2 -0.09005558840753453 56.18718119361272 33.597172623595824 3.686565650365217 -8 2 28
100 3 -0.1003457695845577 29.818964365827004 41.61112288587734 2.2074081298296964 -10 -4 -5
370 1 0.1034514155217938 26.219836353132997 38.89391957186195 0.6943078595705134 0 9 -10
4 1 0.09043212287327665 54.25691254691702 31.79760132393713 -2.261214040419894 -5 -13 0
371 2 -0.1506301174331013 27.080613293879722 39.36652388084973 -1.1435514934658462 0 9 -10
276 1 0.07944056697483257 53.38701606787985 36.56006860244406 3.3415855164626254 -3 -4 -1
278 1 0.1050659411863494 51.97470382456657 36.28754982382076 2.2465202052873035 -3 -4 -1
99 3 -0.2229273753416915 29.697123865852713 47.32822275447084 6.3984254406512955 -1 28 0
334 1 0.07883902913320497 30.280426356122078 54.48315464395518 5.0488857750737575 2 -13 -6
230 1 0.06934261092985365 30.927272821251588 56.04274086977983 5.267407840197975 2 -13 -6
333 2 -0.1757401194890797 31.16540189773466 55.07887379305829 4.6223541541592725 2 -13 -6
231 1 0.09029436829087489 30.90257662726487 55.37220676959811 3.5812670438347673 2 -13 -6
410 3 -0.133727002586301 29.536174064438804 26.030555058894695 10.77259877953418 6 -2 26
409 3 -0.09434274910003629 29.63670445787741 25.166794211471615 11.68083695395192 6 -2 26
68 1 0.3820175208105254 31.14680187848133 28.22341405967256 10.457442996778585 1 12 24
190 1 0.3564942688268328 30.189369810873416 28.719410984089915 9.204717660780315 -31 -1 -75
412 3 -0.5239660433264797 31.166841937528787 28.51259303504636 9.537370065486032 4 0 22
137 1 0.09338332840460309 33.22595350416873 52.43219541255293 9.143645241849148 2 -13 -5
64 1 0.1722235641554033 44.05857310849078 31.3700861629419 1.9202555187557955 -11 -16 36
245 2 -0.2061134691816066 55.939099748275375 32.07390894410234 3.220978691159877 -8 2 28
261 1 0.1277507673772393 56.96890080685765 34.719646552200544 -1.1320271414733083 -8 2 28
404 3 -0.08355562326003638 30.40305955479269 32.15204142706085 9.293460603176056 9 2 -39
403 3 -0.1260567273956222 29.71965715458053 31.191256817316233 9.641079877504625 9 2 -39
248 1 0.08006712592274387 55.28377474711701 31.948193219856325 2.411440448784535 -8 2 28
60 1 0.09153337428962896 41.7784848585538 33.229601572910994 0.962490889916018 -11 -16 36
61 1 0.1426884430340418 43.129963586869366 32.65990209202707 0.004450360831452317 -11 -16 36
59 2 -0.13222031242716 42.65885499960812 32.64476247919886 1.0054598889428779 -11 -16 36
263 1 0.07959790550836465 51.711145426156534 31.890714101728268 5.074518826131881 -3 -4 -1
264 1 0.0959900311598442 50.70317533428827 33.34353081747438 5.275980490639253 -3 -4 -1
270 1 0.05635957465332567 51.09136031078633 34.970083298373545 6.3576351174669465 -3 -4 -1
271 1 0.07573159105068755 52.675861105448355 35.91053855112398 6.27092012923336 -3 -4 -1
269 2 -0.09657036522691108 52.02549377001786 35.341788226792175 5.628176502691628 -3 -4 -1
268 1 0.02590974002274044 53.5283999537551 34.16428948930531 4.4444296933238 -3 -4 -1
267 1 0.05528699571272067 53.27096095225006 33.536162249860865 5.898163372520408 -3 -4 -1
266 2 -0.06268626597316579 52.63032202443486 34.04661089589559 5.1534921928967385 -3 -4 -1
265 1 0.07978866129290199 51.25684490727634 32.912847839274356 3.6270158118962366 -3 -4 -1
262 2 -0.1996234053874525 51.542063011013674 32.99601411627056 4.727170458670835 -3 -4 -1
189 1 0.01247588206021272 40.90753878883179 26.306902001324076 1.938670607479596 -24 -27 47
373 1 0.1470301565466136 27.085759627711194 38.381715430662865 -1.543302268465149 0 9 -10
138 1 0.09870360552674828 34.26400557607516 51.859763627614385 7.8017391178380455 2 -13 -5
381 1 0.09826381035716689 30.155625480179992 45.3749509691246 6.015773477100545 -6 16 -7
380 2 0.05759323280983451 30.530349351135893 46.539048850853234 5.8167319997192966 -6 16 -7
382 1 0.06718743309261352 31.545791628617636 46.82234842738902 5.484482858176325 -6 16 -7
134 1 0.08370654707031464 32.282295917027575 52.32893588417774 6.612422811029125 2 -13 -5
129 1 0.06605765961829928 33.33750501015757 54.70127778266515 4.256399481242328 2 -13 -6
127 2 -0.08972899799496746 32.468431382729825 54.266653589056304 4.8994878438575835 2 -13 -6
128 1 0.07224430461641969 32.4795954014075 53.28955073679071 4.519928538144287 2 -13 -6
139 1 0.08779413748256054 34.47251718600655 53.482077875219574 8.516185267898111 2 -13 -5
131 1 0.077194988210482 33.85998515441928 54.841826475804886 6.418130483042603 2 -13 -5
133 2 -0.106675576789026 32.563764231988074 53.149039884281144 7.174743183296368 2 -13 -6
135 1 0.07405779775650359 31.719750363698516 53.441218960286605 7.740207658919413 2 -13 -6
130 2 -0.1127334896623638 32.818341408644365 54.4977092907059 6.406237821747434 2 -13 -6
342 1 0.072154477438323 32.18499025055694 55.24747560501325 6.836868277432031 2 -13 -6
136 2 -0.2044069727940707 33.711006910488294 52.72921248465493 8.175622385453023 2 -13 -5
372 1 0.1228278737598123 27.514415850295155 40.115255218435784 -1.78894653474911 0 9 -10
247 1 0.08982285969529678 55.48017244595526 31.607347474104476 4.122818556366303 -8 2 28
3 1 0.057824311624223 55.63266802986809 32.40498113262848 -1.15403026707578 -5 -13 0
255 2 -0.08995859757050582 56.29088814560923 34.37692844982617 1.0202393089267578 -8 2 28
246 1 0.09476957082754732 56.880181398609864 31.670800163660125 2.873485165666166 -8 2 28
362 1 0.05043000260595688 55.99550894197338 33.37567402394782 0.7532908840998266 -7 2 28
2 1 0.06405915786467589 55.93025007461016 31.680273418662935 -2.5460419547385054 -5 -13 0
302 3 -0.1563946585180206 54.69214834664137 35.19751929156467 -2.427540404760118 12 0 17
5 2 -0.07184517228332488 54.98154450608302 33.72243536160936 -3.0622591035819453 -5 -13 0
252 2 -0.1086523156656067 56.9182893744749 34.323699938082285 2.4334799796853237 -8 2 28
195 3 -0.08400562477144813 36.834153110284674 47.56939389716273 12.4490526006071 10 -3 -7
6 1 0.1591118144582817 55.97527785389585 34.14427293193213 -3.4351386798525283 -5 -13 0
77 1 0.07918411081911156 39.45067836229472 31.599745815239512 19.77070317395829 3 3 -5
79 2 -0.1050589849751684 40.17015774112725 31.798940958973105 21.610875895657564 3 3 -5
76 2 -0.1124629663286518 39.24405757179746 31.072724131498614 20.631483625591937 3 3 -5
72 1 0.08767488369295809 38.88747368787424 29.378581827432438 18.214927605152553 3 3 -4
75 1 0.06840992358914036 40.478467890067385 29.371300148402817 20.36561403620351 3 3 -4
73 2 -0.1060109152830063 39.40225849170524 29.49428291787952 20.372100816799644 3 3 -4
70 1 0.1001330895770702 38.148752805786415 28.125140824724287 19.352910295750576 3 3 -4
69 2 -0.1999663360840221 38.451673850520166 29.19632859410414 19.189471905080904 3 3 -4
80 1 0.0763573051390051 40.86452152017669 31.26142581616222 22.284590568433465 3 3 -5
81 1 0.07647826466407927 39.557660483255724 32.49365874021655 22.197454490069376 3 3 -4
32 1 0.08782534614564685 44.388917660650606 41.55865304438563 17.67226740070205 -5 -7 12
237 1 0.07655523141754025 42.12245455474422 41.05995830190172 19.569030370043905 -5 -7 11
30 1 0.0805144786407458 42.33304102881228 42.86651533077421 17.768372772350133 -5 -7 11
25 2 -0.1275382159360919 42.316088046769124 42.10426070963765 19.820983806169878 -5 -7 11
22 2 -0.09612837228348182 40.94111275381458 42.83230257628168 20.087912911378886 -5 -7 11
23 1 0.07511182536153564 40.256488519803504 42.632852126790084 19.23433961106075 -5 -7 11
24 1 0.07103568200107516 41.02334443444148 43.87342846035317 20.326689077113173 -5 -7 11
28 2 -0.09506930608945158 42.9342736033176 43.00574438433333 18.663226518689786 -5 -7 11
29 1 0.072881953572755 42.875583381758105 44.008973786058334 19.143624194648076 -5 -7 12
31 2 -0.1968532686689265 44.34214048496387 42.60530838205468 18.05213268126278 -5 -7 12
179 1 0.1330536947760359 51.197654179674416 37.867581521595945 19.484963896357186 1 -7 5
178 2 -0.2924382748643679 50.59894034613549 37.00289210730395 19.751564141270563 1 -7 5
180 1 0.127995769402864 50.01675327193752 37.09077884398865 20.638532510044772 1 -7 5
177 1 0.1427421353124692 50.999029777083884 36.087271098084656 19.705553064040746 1 -7 5
196 3 -0.08217366927168668 36.47750765890906 47.680884954094424 13.612812135338668 10 -3 -7
228 2 -0.2283946619958063 39.86439313225721 42.201606622326445 21.07222889266609 -5 -7 11
33 1 0.08866854359554713 44.89772666808739 43.153401672295445 17.28305300475029 -5 -7 12
34 1 0.08597985820860021 45.12210717139003 42.68260141945163 18.861444264565257 -5 -7 12
7 1 0.1784022084192162 54.198653351158626 33.707170482238176 28.240026745846386 -5 -13 -1
336 1 0.09973736964194357 40.20712408388918 42.403147059583176 22.10345377261021 -4 -7 11
9 1 0.05792811977727269 35.700768817018265 31.487915087409103 25.15962347968104 -7 -8 12
8 2 0.05285159162351921 35.64200964787152 30.4872238915299 25.474807369743537 -7 -8 12
10 1 0.08934246163840495 35.23867106136343 30.307465229876197 26.508019866921078 -7 -8 12
78 1 0.07474056634947288 38.14549821824623 31.197161284391672 20.87748714679047 3 3 -5
85 1 0.08311616658407178 40.78174039367867 33.059213126680504 19.78334849902677 3 3 -5
74 1 0.09503968115436159 39.03637197540612 28.937720354988638 21.228400311174898 3 3 -4
71 1 0.08296819701840681 37.60021275083047 29.90453955632974 19.054715523895503 3 3 -4
335 1 0.1030529075323991 39.71334117101654 41.17272850857865 20.870002595542168 -4 -7 11
210 3 -0.1066279110249936 26.308842265639814 36.69286213650802 27.771156186322045 0 10 -13
411 3 -0.2221800812362536 36.16403476021378 29.40734570457034 24.976902752342863 0 -1 18
82 2 -0.2039910052239946 41.23511081201114 32.37577039776569 20.578479159783587 3 3 -5
83 1 0.09001569040757756 41.8838877839951 33.03608333645124 21.27843241865616 3 3 -5
84 1 0.09390612879880199 41.7278270979959 31.48999084061964 20.22020339936605 3 3 -5
102 3 -0.1077737520094466 25.19194118988184 41.0168866076726 13.35379991761389 -3 -11 14
229 1 0.09182745289340224 38.87969278861594 42.669210679520184 21.111925841766478 -5 -7 11
26 1 0.08554218741510385 42.959662642009704 42.12623824316653 20.666188496983562 -5 -7 12

Velocities

206 -0.0016958265419612587 -0.0076163611218122845 -0.00402261334266295
338 0.01314907563440273 0.009199685358670379 0.041682922318747324
20 -0.028712764362412373 0.010483344112135822 0.047688718198195
205 -0.00044178104680097025 0.007073940972478696 -0.0025439075591557393
337 0.0029339922676772387 0.006452272429652615 -0.012409550314962034
123 -0.0038881788837163197 0.0007053122817629633 0.00030136619240156654
21 0.02333215615910174 -0.017061336834091664 -0.009899242467250482
339 0.02470577121536974 -0.01642500383257393 0.023994668286735868
124 -7.77900487092698e-05 -0.0555697047358632 0.047102032710725376
347 0.028163252118126175 -0.00432526999893803 -0.0384971232403661
301 -0.00855030525798077 -0.008808155828281082 0.0006269873488533821
221 0.004096248644343919 -0.004863582458741779 0.009344968155913
220 0.04990235382502592 0.030483106842923092 -0.018959436932790844
343 -0.010643850052556214 -0.004817613041103869 0.00023064164030372222
345 -0.044369495709250445 -0.03178810327718391 0.01996338061536007
346 -0.014464200341703586 0.00013090977733298565 -0.0014281855602703594
348 -0.008931934958306098 -0.02581619243461551 -0.047703122371081694
349 0.05023950968306867 -0.03268557977885214 -0.035827675529844574
91 0.012658800720672318 -0.005879354763990514 -0.01489569532734372
90 -0.01895240683091873 0.0067226456827346615 0.01685433506924533
297 0.007509760953967053 -0.0010181010120429836 0.013133544644322995
216 0.011954299334133485 -0.010251493214840424 0.019147772265262833
340 0.007670136972236144 -0.008591719693097416 -0.001955482075253168
319 0.011735026925722895 -0.01345159879048126 -0.0007705861040425943
227 0.0011021166667613354 -0.05352841913183403 0.02333138786919005
366 -0.00015228760873183908 0.005324930898401786 0.00912345010322511
363 -0.0049259097215359395 0.010147682257012769 0.0017308346565601477
365 0.023983109542800907 0.030473129161440002 -0.021645596892026078
364 -0.02500197295123533 0.019056691461708217 -0.05845884384723219
218 -0.011334351123332184 -5.901754052334758e-05 0.01855999544457326
224 0.0029647220123945562 0.0013357949246400552 0.013065574508929593
358 -0.03726015552452369 0.048019019823523156 0.050773651045244686
360 0.0025561554534559963 0.002686639625361608 0.007919238211897687
359 -0.018020002350877737 -0.018147439450920518 0.00994967987404099
357 -0.001039973328798426 -5.189314152932095e-05 0.0018147811387559125
257 0.025388363397966265 0.00700862080139965 -0.016611996745376757
361 -0.01824966679095948 0.022245068717170354 -0.0575271301734314
352 -0.006541447895661955 -0.004101170462895717 -0.03212492933848295
353 -0.019040817503279274 -0.0025957557189827743 -0.007954612673926997
350 0.001097037736562273 0.009158787077582818 -0.013596086130247148
351 0.037087504814668305 -0.003639499116328115 -0.03134499335129065
250 -0.03044623128053825 -0.040147126220260725 0.008779111997104298
296 0.00031971031621258835 0.002517084187578819 -0.0074834093290983
356 -0.001978323761688043 -0.01057358435560188 -0.014451827316587921
354 0.007596033248904394 -0.0049353836159223485 0.004493476587653664
222 -0.0007091251378801439 -0.010670347893918923 -0.00248842416790138
226 0.015095780417652424 -0.016639240493747286 -0.021115824671908742
225 -0.00912665634837863 0.017723528645066947 0.015768591892174454
219 -0.011377217991948088 0.055511637430191274 0.025106583375145205
223 0.0036875198994487613 0.023469192821844682 0.03888798106267479
217 0.03894398317509416 -0.03817810896792719 0.03031439848237081
215 0.014487550410455808 0.007115398004866231 0.013474949654225587
213 -0.006584356151839598 -0.04045646855173292 0.008043044767919236
214 -0.023071931869628325 0.026417715479303567 -0.051039179450048454
211 0.0058299751494594034 -0.010714472117958085 0.006654460622286953
212 -0.011251990279363475 0.019993256292700243 -0.0031188466545760706
344 0.020986986731680878 0.07017048239280232 0.012856728020923254
202 0.014739749074837848 -0.00043514162256435337 -0.0016621004599705364
174 0.013096390324438375 0.00204272939091829 0.020904307204656303
414 0.009649268359429785 -0.005270223156902765 0.004593041424152761
36 0.04175624420161918 -0.016325301002284673 0.07456051769297088
37 0.014604192104364006 0.026314171511130982 -0.0010438497524430062
35 0.0004561890392376748 0.0010336075662329418 -0.008074566444564082
38 -0.051372675586800816 0.016721124580719254 -0.01751390482046747
87 -0.003566220228050541 -0.0011516434065099671 0.0008377480948002105
86 -0.011614916474181516 -0.005309960026893958 -0.007722868471079381
304 0.002100319410480641 -0.0013712882277777077 -0.009831571340927887
305 0.006580917345359294 0.002407151340766277 -0.0001585637056208859
175 0.02809344859685596 0.014777860784994061 0.010476876278417622
44 -0.032619366025139665 -0.013533319485313772 0.03737291163778094
43 0.03644407730647928 0.003329328461717379 -0.0017929812890984539
48 -0.00037709500176911495 -0.019551750509086696 -0.0010881683889243578
49 0.018968299818455304 0.014289085022607255 -0.01688952941322842
50 0.02706093867826542 -0.010179208226451065 0.054891836013994645
42 0.007532801143310276 -0.004382752982941952 -7.544892082771723e-05
51 0.03245278170574513 -0.007632311024047247 -0.010879311044167313
341 0.02848197000338406 -0.018598494026383857 -0.015145367281414282
46 -0.016079643898634283 0.018160389842580723 -0.00592310927214587
45 -0.00802742998782039 0.00842398294647522 0.0011726359206962586
41 -0.0051653533653488425 0.00016074696407402376 0.01070058715450934
39 0.007136851547564988 -0.0020785992416684483 0.009611179736278907
145 -0.021117893798669567 -0.012328163999479873 -0.04414933503562959
325 -0.018338147742169533 -0.009510638556270098 0.0127586200862776
332 0.04456003024173881 0.010465831577484642 0.009705004345120158
324 -0.009804454012061913 0.03983919417947054 -0.00950323239067843
323 0.0007939147951374614 0.016941361506920632 -0.0012452040695113058
327 0.0005109459198874114 0.022918033434927047 0.02120580273815607
326 -0.010430149509655037 0.012140325635985133 0.0011707333378076414
330 -0.007347740915844061 -0.04452124507420543 0.04167848163360168
132 -0.001750052760601187 -0.026184865475068257 0.016569645696020898
329 0.004036263614064408 -0.015480348466820427 0.006811026986784622
328 -0.01681339909758172 0.01723757863324943 0.005353170272939736
413 0.004231029473720331 -0.0030529312513621768 -0.001784490154889906
317 0.034646599791471305 -0.03383933238231778 0.009897807012294103
320 -0.008539360402234509 -0.004623154225961756 -0.007322997963773295
322 -0.021213907961435775 0.009093623474861104 -0.07406404315811263
176 -0.04022617155105581 0.038401957344939085 -0.06729187882027057
316 -0.007490822292513747 0.018297864394792227 -0.013760897198523818
318 -0.05132187605765072 0.0076713921595533245 -0.039367088543908406
321 -0.0005228999947009397 0.03946277185249297 -0.011736782905564354
186 0.0394167400197716 0.0341641015171287 0.023062143932135726
253 -0.008790952566201575 -0.020171325981706557 0.0011874402190477566
300 0.018770908533349232 0.005018184830810042 0.004298921743960331
260 0.002485289891491693 0.014699705177525722 -0.0504343916859036
55 -0.006419593617096674 -0.015180822403196991 -0.02715547501088111
254 -0.030617565942179854 0.005703006790352964 -0.02917204701530671
143 0.006922058226293618 -0.05995932824170946 -0.027504855500098256
258 0.004264884446068632 0.0017293105661298504 0.0013325172654837605
383 -0.010868574122144946 -0.0008961892833022578 -0.02071862239150674
140 -0.007919694482409508 -0.0031550210042545204 -0.0004298476082791842
144 0.002726453117663244 -0.006094880676171418 -0.002114180448788081
146 0.004159014004027945 -0.02114880918480495 -0.038542095662759034
47 -0.03771016168698638 0.016163560502828026 0.018564509818883426
151 -0.012876903518794919 0.011660746012701048 0.016163787935085525
40 0.035036159159490196 -0.055215263029654994 0.018812843005038722
150 0.005947645106772868 0.0003125325547242844 0.006058844693587031
147 0.011703988975311842 0.01508674691245948 -0.004847134119547246
148 0.016819716937558987 -0.03426781787369729 0.023083261739797786
153 -0.0027369441321083337 -0.010213889420277364 -0.002960227229709263
149 -0.009626354187555013 -0.022280466867648566 -0.026881374532784056
154 0.0072616224934332245 0.0255318110733985 0.003388055662424281
155 0.021008741472708946 -0.006177360144711122 0.008345098710857297
156 -0.012482475266238082 0.020133950610615573 -0.00487203017824506
142 0.034188608135187946 0.013163520342094882 0.03652124898336212
141 -0.015531038001536964 -0.046458034784110244 -0.0015400403566818946
408 -0.0032104211746649077 0.012599038209167397 0.014803861212290142
407 -0.0018731746875437652 0.0064542423220882985 -0.00034536137354121736
188 0.010116081188744805 -0.02834912656408075 -0.025673690381113033
259 0.006897658704540179 0.04706596656039062 0.04955532572748646
378 0.03821459675501911 0.03559729997194792 0.08795794963872036
307 0.004382133818534152 0.0002714606877162634 0.002463468868121197
306 -0.0012981779432833461 0.008648186137237902 -0.00769798445027229
199 -0.0047923103499202735 0.02948647672439486 -0.008315337421072764
241 0.0009848215839391064 0.007675147647651394 -0.005638442130005555
244 0.005762815130595665 -0.013378192671824449 -0.026591659102067806
242 0.049526023635476785 0.009145981409814046 -0.0004107275051325125
243 -0.009770880093265929 -0.023744210837433995 -0.013782598748831056
125 0.02203358782306803 0.0012711163006402363 -0.005790714305013664
235 -0.006918162435411776 0.00605975576363475 -0.005172946975985091
234 -0.0124289440220227 -0.03316874429976208 0.009807332293659664
233 -0.018312320383578773 0.04747934807804014 0.02689454572256692
232 -0.010671679396388897 0.014160497929314394 -0.0006140771942844917
19 -0.0019471712394269474 0.0029787318404494068 0.04521047955686983
238 -0.002119689735434675 0.00022145636188892971 -0.01829469529112249
240 0.009459442639169932 -0.04178446537775395 -0.000748909322128725
18 -0.0011010742960707272 -0.014497515672390309 -0.001222504602045443
126 -0.03940943503201414 -0.0525048497043746 -0.0834275701640199
58 -0.00734280282187693 -0.04243380255999558 -0.023209369752211523
56 0.005733635133231996 0.008963683383475187 -0.003092510143998301
52 0.009898461198163495 -0.00463911328074955 -0.005453171754433381
57 0.02094300282576101 0.12142177684704683 -0.015144801015068514
54 0.033496586691847914 -0.03845034815049748 -0.029101005231930505
53 -0.04083356296106694 0.003988363189964665 0.006333283461625161
375 -0.025957373532596247 -0.043838789578815957 0.006907026012534957
298 0.014577298110893862 0.001574383025116202 0.0059152358069895425
420 -0.0002511960158135664 -0.002332437870896511 -0.00035526446734069353
374 0.00649988617450454 -0.00803727106106155 -0.004906967405571158
308 0.004288929504665096 -0.006611113568793383 0.0007862341055438592
377 0.001651368918760461 -0.007234228853008706 -0.021864671924505526
27 -0.0015869890064955554 0.01200518713601277 0.01235491309699444
236 -0.023276146935951824 -0.021467820210966857 -0.021832544375114258
239 -0.006750835381560699 -0.011209862132110497 -0.02487982454736506
396 -0.026729118717031253 0.008422550546951398 -0.013742963368877821
376 0.046213457277278706 0.03739748374083763 0.04556777799397934
419 0.0080838097451469 -0.0008631909436317616 0.0012987940560150576
182 0.020284852188085456 -0.058363582581366404 -0.06665437333344149
198 -0.012961179065281794 -0.000574755051831141 -0.007549290126588546
309 -0.00863831325527295 0.005108698124902675 -0.008725644200739778
200 0.006361325162756774 0.006446488570341141 0.002172583780616332
368 -0.03669014939002555 0.013404126539576282 -0.04597551608046019
402 0.009958139066919265 0.00708555591277141 0.0012478229642249072
312 0.004620311243077884 0.0037427969568062966 -0.003665840509333181
313 0.003062143799118476 -0.007554774731636721 -0.0008541876067454226
385 -0.0015314267606661995 0.01347977780126125 -0.0731755187962602
399 0.04303412931783289 -0.017703248179104424 -0.0069757391321864275
398 0.0034076495937346543 0.017440115407696848 -0.011351701081195141
387 -0.012455976745228137 0.05966938092333681 -0.023995193658471442
393 0.042348372962324646 0.00760177067905135 -0.06175225062656172
392 -0.006303875709382067 -0.015900340461678254 -0.0446153651360796
391 -0.004812294094300879 -0.0021142058722021673 -0.0012300255693738985
397 -0.00833015361269622 0.0009803048061877426 -0.014198941603889837
389 -0.054472673088516936 0.027996309224994183 0.031668018726715215
394 0.0005987438511337335 -0.0032273751047148295 0.002269668010142802
395 -0.0020263381990860206 0.012047748232152145 0.011327747047185017
384 0.020053843892090188 -0.007754769916378197 -0.00596112892646539
388 -0.008574033363637395 -0.0032743289800503724 0.012540445825720715
390 0.02385467184985451 0.04794488209895302 0.04916158944068037
400 -0.0444410122252299 0.025133179320739375 -0.03401357957922423
386 -0.026858692404278014 0.01003768085043162 -0.01906762991104511
197 -0.005963004435009588 0.017368634457293863 0.0023593772284313174
299 -0.0038100015207975 -0.0010294434737480034 -0.0021379285357856995
209 -0.0021764455433057675 -0.005439305343258996 -0.005594780379802125
379 -0.014899334539025881 -0.01298546361301584 0.023429809653556784
11 0.004888274802563122 -0.005639336117382302 -0.007427623990458231
13 0.00023464781263074632 0.01931996863032323 0.01514289006827263
172 0.015632951383936215 -0.049112128915137075 -0.007231115648592903
105 0.006090957248476159 0.009205646089386883 -0.0037006205550533227
415 0.008552156393553034 -0.017958065282292823 -0.0024877561526948683
416 -0.007070145436926117 -0.007392821297233237 0.0011839997446292734
192 -0.0002989966961207923 -0.007705898733475363 -0.010793258607222293
191 -0.009402731238942405 0.010998344520043826 0.005523408246668501
418 -0.0036527239027772766 0.002812326583106776 0.0024744636040215234
417 0.0020059908174374346 0.019187216815701357 0.017774939390473237
173 -0.030465720808982563 0.04403435773049027 0.032217627637277126
171 -0.021658874563235706 -0.04943062066805896 0.08423528944866158
162 -0.03172526991814835 0.05081935135426167 -0.03514282250281711
157 -0.00811745070182071 -0.006554756530413478 0.0016387664141405789
158 -0.026500289740685887 -0.04390455687831618 0.026270136285745364
291 -0.004487533703129434 -0.004179297898152811 0.02699760479415719
121 -0.01450294352640914 -0.014622110851809304 -0.02432421776157458
120 -0.026759890744537076 0.0020873624343948024 0.06637017193115378
119 -0.0068751569277442585 0.0033780133300541746 0.008410643225102698
122 -0.029205740346440672 -0.005791031674201735 0.038167028675813744
96 0.00790039586746803 0.005051488691448779 0.0026344428086961425
97 -0.006230531063122336 -0.0036931597571734118 0.007000400781931284
14 -0.012470459525443699 -0.006884981649776439 0.0013586858274981435
12 0.01616132677155118 0.04787683682781334 0.0034909192825076513
405 0.011249022884124884 0.003599299655030591 -0.0003830023198684021
406 0.005229197093179711 -0.004142003908193184 -0.0015108551836198788
160 -0.013068748930085349 0.02520823955233245 -0.005265059460669852
108 -0.04173458433859264 -0.019348167379750255 -0.024681672516612563
161 0.007149526244413974 -0.0026074223139652395 0.017010926853283828
15 -0.0076329685498830995 -0.006451677045550935 -0.056994812116559185
16 0.0669769744395025 -0.013732669057409181 0.03797789984946011
65 4.266212023410827e-05 -0.009690400961931472 -0.00256776767478497
114 -0.01943926488157854 -0.013908100380508909 0.01656018907665495
113 -0.006593466443136168 0.011061850286667207 -5.988654244582807e-05
115 -0.012250484250666353 0.012911469797354741 -0.006384433041298507
166 0.03521094716298025 0.030618366104755705 0.04067429054809414
292 -0.003482837658861783 0.01484187874818584 -0.009902038128110168
295 -0.028504090751022972 -0.05253307279883584 -0.06047951685264732
93 -0.006531320879402399 -0.0023001318724127136 0.0054440344098865955
92 -0.00489011383926949 -0.006065950313846588 0.006106045147747064
294 -0.048398403855367034 -0.022741549800997476 -0.006380384457780091
279 -0.0030073740431063693 -0.001351701172500919 -0.0036221244305747
280 -0.0171449241690793 0.01811415497673824 -0.012982707258340229
285 0.010008250373232 -0.03471731640979037 -0.02002848570885632
284 -0.02594356427199377 0.002927132047729247 0.005480246593424203
283 0.0006982040891143643 0.005161839439282308 0.006941171972153081
282 -0.02148402643957767 0.0473636814289851 -0.03433600632080377
281 0.05037191841112278 0.03003890438122481 -0.01878457499371765
289 0.0054497946817267506 -0.01328578371700093 0.0031304883128875395
98 0.004099641727233055 -0.0024016083417451608 -0.006262410859866151
287 0.04329723545979197 0.009587488911419619 0.014436630284029972
288 -0.038364123188206374 -0.012682899420132634 0.006294272658506412
286 -0.012284447959437752 -0.01143493202132767 -0.002855820638137954
290 0.0437991708405762 -0.005881007024140319 -0.03717119841998426
163 -0.0199103572157083 0.03821135251665488 -0.012449154411033551
165 -0.06688134634680296 -0.04069165683036538 -0.03554698486645376
170 -0.009088340665207369 -0.0023435269807427655 -0.0006851875631224743
159 -0.046991997448384004 0.01554300376469142 -0.06846729790296574
164 0.0016379247379455057 -0.01026589487188723 -0.010924335555223527
168 -0.04453895441194069 0.0028326432116895194 -0.0023263327342747967
169 0.028422099457053762 0.039230401181347345 -0.016851934840940063
167 0.0005516646251394992 -0.008476549989387789 0.00348529907476125
187 0.01021528972569693 -0.0060865920259781225 0.011975616916198181
193 -0.0018228097953204702 0.005761586049571706 -0.0019392114467075687
183 -0.034521882222019 0.039525563043278596 -0.0409190710019185
109 0.03776541881405776 0.005181628816613255 -0.024038246681683893
117 -0.05315826237325166 -0.016974166537072177 0.01986299344215703
181 -0.0026955626641352085 0.013319630506373215 0.01647909899265244
112 -0.04024546608063488 0.0010954974551955414 -0.01922089452340475
17 -0.0418401782508592 -0.04612320591146815 0.02683041544798651
66 -0.02111410744116041 -0.029350542690112877 -0.01957920183617823
89 0.0003628323354309174 -0.0008090033516861098 -0.0047755819817872315
293 -0.02760833063900238 0.001247721419239937 -0.039212610217915375
184 0.0019061771792825584 0.0013557526839090017 -0.002604901921957056
201 -0.013359987169249767 0.009208568871856263 0.00448534456734447
95 -0.011870376448710878 0.006116209966580172 0.003096534852993103
94 0.0038698697765596796 -0.0069208574456500575 0.0042945472064543615
67 -0.022998316756085848 -0.015854877765562336 -0.0355999143491672
194 0.002808356613077396 0.0036164286190362794 -0.006918912193227642
185 -0.03326990724139682 0.022944409369411313 0.03184895620450306
401 -0.0010375225109456674 -0.001863433246491746 0.003247516891436804
208 0.0033138385823664224 0.0012728299449980272 0.00028671661657389785
88 -0.01828938917583527 0.0008501765291392366 0.0008644590947474303
331 -0.032042935500021796 -0.015671142579584983 0.0016417058306991876
118 -0.0653408576116784 0.021107828653403587 -0.02746080956664698
110 -0.006625863511838484 0.005364272932854366 0.005093000862225783
207 0.013100177427834475 0.0029116327791093256 -0.01067168779370588
107 0.03825208977583955 -0.02819722798087648 0.0370832841653356
104 0.0016672625470764092 -0.008652943771241536 -0.004450244140714641
106 -0.006814908157549101 0.0014568435313147515 0.006466273155873659
116 -0.0036195127760092678 -0.004567970075012068 0.0016763375176159301
311 0.010941832469129444 -0.008903245627893793 0.011429209338175565
310 0.003720326045604364 -0.00048085659848513167 0.014251263060115748
111 0.04342227255903381 -0.03622165540850161 0.028565537154426158
315 0.0003876774724296699 -0.0012968879341961215 -0.00039470529625529164
314 0.004452258873792175 -0.00422293870116082 -0.005683424331670135
203 0.004205228793922975 -0.004204557395040139 -0.012653852712054256
204 0.004313097161131528 -0.0024833368850600457 0.0029117193997286405
63 -0.0022996453647922653 0.027244397242712295 -0.015179466847656852
273 0.024987054359058975 -0.035314378631579754 0.03319466008689303
62 -0.005018354249456624 -0.00116040143073682 -0.016341178055273537
152 0.004354973190615495 0.006691131963608112 -0.015352423666270624
1 0.006311730462199083 -0.0032579679870125876 0.007005422322017216
275 -0.00621242508536029 0.007959969765716404 0.002984636692032341
303 0.0029332484175790727 0.00666100892585146 -0.0012333499086299253
251 -0.03441819646498987 -0.018579066054712615 -0.022843820328713405
272 0.00665841354911447 0.0005262521105289804 -0.0148017709148684
256 0.029833501011405365 0.0020996025872703126 0.013490499003817097
103 -0.006840456421563077 0.0052961741305090895 0.005215168171831681
274 0.026830562085438946 -0.008335848569854596 0.003785524591097776
277 0.020784515653292264 0.002394789623913256 0.012793838781855194
355 -0.01025718649349891 -0.04007738805420124 0.05654906942088065
369 -0.03151885489979665 8.316440351009215e-05 0.026977145115072137
101 0.009082591585730201 0.001410085734117596 0.0014540240986830764
367 -0.007118349767000696 -0.01929423241581861 -0.0002501483093778224
249 -0.0033261119047574756 0.0027794396671844 -0.014235065959685
100 -0.0031376829106372454 -0.001959137030422359 -0.005620639157283397
370 -0.005724223330489257 0.01406031728700755 -0.08416271532036106
4 0.010415374552279784 -0.0013169603188266518 0.0027102293503224917
371 0.008362493400807167 -0.0020012175133348885 0.001025972383784683
276 -0.04256824078356802 -0.04090237322150362 -0.019150232069317697
278 -0.020983410370114995 -0.0041245830609933235 -0.0005953475589847059
99 0.00924092210536446 -0.0024687431755606357 0.007922607011452124
334 0.010756236669780487 -0.025323486009660785 0.016229272041044924
230 -0.03769981163215938 -0.002670501039425302 -0.026278662856085933
333 0.003655543813410003 -0.0031610403578120456 0.011646989430820516
231 -0.03732002221578203 -0.0232509594998574 -0.031723957376008846
410 0.005397222909248999 -0.009305162535521886 0.01083570885856514
409 -0.003614372241845366 -0.005417781975743067 0.006933721268830349
68 0.010514033333898793 -0.0019397757584902473 0.04541371714394411
190 0.01864409991952168 0.05783572650822829 -0.036576119045474566
412 -0.00016893852219583436 -0.0180102084707098 0.000861834102039865
137 0.04281382301131611 0.047597229276441354 0.03396564470307403
64 0.020307278470587966 0.0192420578376699 0.03627213338829013
245 0.003959897943183386 -0.01206315708609867 -0.013462971503097242
261 0.016370471449584232 -0.021011947400870517 -0.0036572340286627277
404 -0.01757698169002011 -0.006308719741216466 -0.00365481309697026
403 0.013419140146301438 -0.001851139982194468 -0.006607797555867835
248 0.009041807640017718 -0.025669528324816334 0.01963069744185044
60 -0.0031230604638219895 -0.01100961194492925 -0.0020974889941982374
61 -0.020266622923588953 -0.020111323649562193 0.0023070987823493663
59 -0.02098362372252135 0.006682264730148155 -0.011547613137635766
263 -0.029799406424348578 0.027218540639383504 0.031781853554868136
264 -0.01016886962291818 0.012155207721278018 -0.02783534746965488
270 0.04586580302127916 0.014163311054586965 -0.031149973049431273
271 -0.04507104974117438 0.015978157229516517 0.038061795783013844
269 0.007141101965280526 -0.015239465378458153 -0.0009344996993930655
268 -0.03812961066023805 -0.049811436651742036 -0.017061077430268037
267 -0.04276848875361725 0.03360017339993269 -0.0665193953848892
266 -0.013709386121886335 -0.01062453904831204 0.01032908790334323
265 0.015322939095793417 0.015596337892294374 0.022599453614495245
262 -0.006376023883160641 0.009790774499774254 0.006655044203407991
189 -0.018024067368462494 0.026466403613177307 -0.008767669676841597
373 -0.019437733864915506 -0.0270459512279757 -0.031314424186423384
138 0.014375770848374146 0.03278647001000202 -0.01865492268635676
381 -0.0021063368537181 -0.0036871843571562725 0.014517401797640724
380 -0.0029850561990800765 0.006950738531763239 0.0016713853834264788
382 -0.05391309191319907 -0.03851345650444403 0.020241736825624898
134 -0.004475971763304015 0.03487345090258538 0.0030285350362407575
129 0.02496371797021767 0.005032087908441137 -0.03234712525139859
127 0.007581448617625783 0.005916477409789073 0.017765187126398064
128 0.0008133588811742933 0.04545961557488692 -0.02943890709774353
139 -0.014232260211669866 0.017781249991958167 0.012040490521837902
131 0.024567843951210918 -0.005041473260870397 0.011595826068793846
133 -0.0058760791677012324 -0.007584011948668319 -0.00991413484598266
135 0.025795374742038447 0.0314258441026344 -0.01941354355009396
130 -0.0052917201161142525 0.014618629113007155 0.0073036553603548025
342 0.023626937659148677 -0.03842411092415824 0.03062840587144856
136 -0.013038214232525158 -0.0017862612348731243 -0.014258651270468388
372 -0.0070878161599328094 -0.0399834079301142 -0.006584317403125747
247 0.018034210101483275 0.006597576416807544 -0.008374141344608541
3 -0.013063899041234518 -0.003168108363406881 0.025808097816257064
255 -0.007957501651691425 0.0116905284501839 0.004989558213498245
246 0.024639561659550207 -0.017217374267884434 -0.02444870537001961
362 -0.005584160819214268 0.022329855224798162 0.016446180834898457
2 0.02484569067275636 0.02617461983684465 0.009818525287883847
302 0.00016231366775629842 0.004346118228412928 0.0145747257450532
5 0.007320486019427726 0.0007259275129030116 0.004083057623088191
252 -0.0026014976458370027 -0.0028834938981131594 0.005960798720373858
195 -0.0020734175499966404 -0.0012539336406050057 0.000812644985449576
6 -0.019544308447809394 0.009401138567819023 0.020145936748709656
77 -0.0030284229062861306 -0.02630339795414194 -0.013091866283690246
79 0.010587733677602107 -0.010908736783023074 -0.00029741994480341844
76 -0.0020146792210715284 0.01525350688854721 0.004326449126987449
72 0.01453330010364275 0.0443047619126428 0.03812072409311977
75 0.02944923681132771 -0.015971895009312575 -0.018012374980961834
73 -0.002349852359090996 0.012318598327933146 0.004116489447871087
70 0.038524197653355734 0.007552010770998666 -0.029153138408422274
69 -0.0008066485171213244 0.009436188717045916 0.0029956800138749265
80 0.0059112583833920455 -0.05104361144449196 -0.0007671485241942356
81 0.0474099778915407 -0.007159253438850225 0.037888279214450996
32 0.006763147014666155 0.040301515954800964 -0.015547527418643842
237 0.00046760801157970876 0.024048593846660547 0.03002926136361549
30 0.039567874169434344 -0.02455647339322593 0.0005423350399302581
25 -0.0013182056656949406 -0.004528544366633023 0.005616828034648296
22 0.007917836404188156 0.00025006520319190747 0.002761877361879464
23 0.017395954824894148 0.004700980162869611 -0.035355011147682865
24 0.0046813408318958525 0.029440714609890242 -0.027990208656848342
28 0.007252691626911765 0.006750388664834364 -0.010843989914152575
29 0.022818375675697042 -0.02494053614929702 0.020265395116927605
31 -0.004174260885859274 -0.012625831332047581 -0.0010551171024237964
179 0.015377781830894001 -0.028495145250080605 -0.05075218841595586
178 0.0028294727010709743 -0.013362071105081249 0.0015029225314997327
180 0.043962480822450356 0.005197052864767224 0.02245825565984743
177 -0.0229579199718237 0.02567075567166679 0.0670549461419173
196 0.001730783091962564 0.007415847615924624 -0.007377354196421172
228 -0.0012340432575518928 0.016820638867086547 -0.0007486217333018155
33 0.0018446462091988747 0.022938491242341878 0.08020230287127535
34 0.051310166859311473 0.025197756430713144 -0.03169604238302257
7 0.06557509032202731 -0.00033180047939433964 -0.0044901639281170365
336 -0.03770168997267524 -0.03142270413505105 -0.006673555440671975
9 0.06994714176153087 0.05132242813120838 -0.0013366787332135196
8 -0.00341215297939202 -0.0170109220375149 0.005510338334714299
10 0.02461306985660344 -0.01725536728703858 -0.05365599716732258
78 0.03954535853411795 0.00468870256802953 -0.02317462892843639
85 -0.011190122210935821 -0.014364256651588926 -0.02893713580970902
74 0.020060629120282954 0.03619015397816232 0.02852403632639079
71 0.017819297780643274 0.02768799286213196 -0.02727433572967044
335 -0.00016951895172665 0.03133424071587619 -0.046334713805679245
210 0.002113586002257707 -3.194417994426924e-05 0.0007607958120116053
411 -0.011512751020924548 0.0004462145270092121 -0.0015637149602931528
82 -0.004562038971440567 -0.004222603565548997 1.804671797621995e-06
83 0.02814391644637652 0.018688954990524684 -0.014318875075660455
84 -0.019829333574815144 -0.010437802866217512 -0.018089971925032575
102 0.005117187513169326 -0.0038465072983018584 0.0017918739372989375
229 -0.018432096354469584 0.038958848233510535 0.017148697388477935
26 -0.005853250165681692 -0.007542482887925455 0.02937524937523381
