LAMMPS (4 Feb 2025 - Development - patch_4Feb2025-554-g465171d58f)
OMP_NUM_THREADS environment is not set. Defaulting to 1 thread. (src/comm.cpp:99)
  using 1 OpenMP thread(s) per MPI task
=== HOLD PHASE ===
Holding at 2300 K for 200 ps (2000000 steps)
Reading restart file ...
  restart file = 4 Feb 2025, LAMMPS = 4 Feb 2025
  restoring atom style charge from restart
  orthogonal box = (-6.9917407 -6.9917407 -3.4958703) to (56.991741 56.991741 28.49587)
  2 by 2 by 2 MPI processor grid
  pair style reaxff stores no restart info
  420 atoms
  read_restart CPU = 0.002 seconds
Reading potential file ffield.reax.cho with DATE: 2011-02-18
=== STARTING HOLD ===

CITE-CITE-CITE-CITE-CITE-CITE-CITE-CITE-CITE-CITE-CITE-CITE-CITE

Your simulation uses code contributions which should be cited:
- pair reaxff command: doi:10.1016/j.parco.2011.08.005
- fix qeq/reaxff command: doi:10.1016/j.parco.2011.08.005
The log file lists these citations in BibTeX format.

CITE-CITE-CITE-CITE-CITE-CITE-CITE-CITE-CITE-CITE-CITE-CITE-CITE

WARNING: No fixes with time integration, atoms won't move
For more information see https://docs.lammps.org/err0028 (src/verlet.cpp:60)
Neighbor list info ...
  update: every = 1 steps, delay = 0 steps, check = yes
  max neighbors/atom: 2000, page size: 100000
  master list distance cutoff = 12
  ghost atom cutoff = 12
  binsize = 6, bins = 11 11 6
  2 neighbor lists, perpetual/occasional/extra = 2 0 0
  (1) pair reaxff, perpetual
      attributes: half, newton off, ghost
      pair build: half/bin/ghost/newtoff
      stencil: full/ghost/bin/3d
      bin: standard
  (2) fix qeq/reax, perpetual, copy from (1)
      attributes: half, newton off
      pair build: copy
      stencil: none
      bin: none
Setting up Verlet run ...
  Unit style    : real
  Current step  : 20080001
  Time step     : 0.25
Per MPI rank memory allocation (min/avg/max) = 11.15 | 11.82 | 12.61 Mbytes
   Step          Temp          PotEng         KinEng         TotEng         Press          Volume    
  20080001   311.18833     -40694.965      388.66159     -40306.303      79.891288      130970.54    
  20081000   311.18833     -40694.969      388.66159     -40306.307      79.79412       130970.54    
  20082000   311.18833     -40694.963      388.66159     -40306.302      79.938537      130970.54    
  20083000   311.18833     -40694.965      388.66159     -40306.304      79.882401      130970.54    
  20084000   311.18833     -40694.967      388.66159     -40306.305      79.813894      130970.54    
  20085000   311.18833     -40694.969      388.66159     -40306.307      79.783168      130970.54    
  20086000   311.18833     -40694.967      388.66159     -40306.305      79.835716      130970.54    
  20087000   311.18833     -40694.967      388.66159     -40306.305      79.854617      130970.54    
  20088000   311.18833     -40694.97       388.66159     -40306.308      79.806956      130970.54    
  20089000   311.18833     -40694.968      388.66159     -40306.306      79.744999      130970.54    
  20090000   311.18833     -40694.968      388.66159     -40306.306      79.731251      130970.54    
  20091000   311.18833     -40694.966      388.66159     -40306.304      79.839716      130970.54    
  20092000   311.18833     -40694.964      388.66159     -40306.302      79.823871      130970.54    
  20093000   311.18833     -40694.969      388.66159     -40306.307      79.753954      130970.54    
  20094000   311.18833     -40694.968      388.66159     -40306.306      79.854182      130970.54    
  20095000   311.18833     -40694.968      388.66159     -40306.307      79.789119      130970.54    
  20096000   311.18833     -40694.965      388.66159     -40306.304      79.875774      130970.54    
  20097000   311.18833     -40694.963      388.66159     -40306.301      79.894376      130970.54    
  20098000   311.18833     -40694.969      388.66159     -40306.307      79.803346      130970.54    
  20099000   311.18833     -40694.969      388.66159     -40306.308      79.822938      130970.54    
  20100000   311.18833     -40694.97       388.66159     -40306.308      79.815075      130970.54    
  20101000   311.18833     -40694.967      388.66159     -40306.305      79.867978      130970.54    
  20102000   311.18833     -40694.968      388.66159     -40306.307      79.853535      130970.54    
  20103000   311.18833     -40694.969      388.66159     -40306.307      79.821853      130970.54    
  20104000   311.18833     -40694.97       388.66159     -40306.308      79.821453      130970.54    
  20105000   311.18833     -40694.965      388.66159     -40306.304      79.903471      130970.54    
  20106000   311.18833     -40694.968      388.66159     -40306.306      79.812057      130970.54    
  20107000   311.18833     -40694.967      388.66159     -40306.305      79.816446      130970.54    
  20108000   311.18833     -40694.969      388.66159     -40306.308      79.745073      130970.54    
  20109000   311.18833     -40694.965      388.66159     -40306.303      79.869237      130970.54    
  20110000   311.18833     -40694.965      388.66159     -40306.304      79.870293      130970.54    
  20111000   311.18833     -40694.967      388.66159     -40306.306      79.798412      130970.54    
  20112000   311.18833     -40694.964      388.66159     -40306.303      79.841446      130970.54    
  20113000   311.18833     -40694.967      388.66159     -40306.305      79.823882      130970.54    
  20114000   311.18833     -40694.969      388.66159     -40306.307      79.854706      130970.54    
  20115000   311.18833     -40694.966      388.66159     -40306.304      79.752335      130970.54    
  20116000   311.18833     -40694.966      388.66159     -40306.305      79.818223      130970.54    
  20117000   311.18833     -40694.969      388.66159     -40306.307      79.814504      130970.54    
  20118000   311.18833     -40694.962      388.66159     -40306.3        79.922043      130970.54    
  20119000   311.18833     -40694.968      388.66159     -40306.306      79.797304      130970.54    
  20120000   311.18833     -40694.967      388.66159     -40306.305      79.880754      130970.54    
  20121000   311.18833     -40694.97       388.66159     -40306.308      79.731605      130970.54    
  20122000   311.18833     -40694.965      388.66159     -40306.303      79.832983      130970.54    
  20123000   311.18833     -40694.966      388.66159     -40306.304      79.865293      130970.54    
  20124000   311.18833     -40694.969      388.66159     -40306.308      79.674963      130970.54    
  20125000   311.18833     -40694.968      388.66159     -40306.306      79.857717      130970.54    
  20126000   311.18833     -40694.961      388.66159     -40306.299      79.873013      130970.54    
  20127000   311.18833     -40694.967      388.66159     -40306.305      79.739703      130970.54    
  20128000   311.18833     -40694.964      388.66159     -40306.302      79.864357      130970.54    
  20129000   311.18833     -40694.968      388.66159     -40306.306      79.791628      130970.54    
  20130000   311.18833     -40694.963      388.66159     -40306.302      79.836907      130970.54    
  20131000   311.18833     -40694.959      388.66159     -40306.297      79.883843      130970.54    
  20132000   311.18833     -40694.967      388.66159     -40306.305      79.871214      130970.54    
  20133000   311.18833     -40694.963      388.66159     -40306.301      79.902454      130970.54    
  20134000   311.18833     -40694.966      388.66159     -40306.305      79.83964       130970.54    
  20135000   311.18833     -40694.968      388.66159     -40306.306      79.719297      130970.54    
  20136000   311.18833     -40694.969      388.66159     -40306.308      79.813353      130970.54    
  20137000   311.18833     -40694.968      388.66159     -40306.306      79.843483      130970.54    
  20138000   311.18833     -40694.968      388.66159     -40306.307      79.83707       130970.54    
  20139000   311.18833     -40694.966      388.66159     -40306.304      79.789359      130970.54    
  20140000   311.18833     -40694.965      388.66159     -40306.303      79.829424      130970.54    
  20141000   311.18833     -40694.965      388.66159     -40306.304      79.840266      130970.54    
  20142000   311.18833     -40694.963      388.66159     -40306.301      79.896115      130970.54    
  20143000   311.18833     -40694.969      388.66159     -40306.308      79.817346      130970.54    
  20144000   311.18833     -40694.965      388.66159     -40306.304      79.732492      130970.54    
  20145000   311.18833     -40694.969      388.66159     -40306.307      79.711828      130970.54    
  20146000   311.18833     -40694.965      388.66159     -40306.303      79.858875      130970.54    
  20147000   311.18833     -40694.969      388.66159     -40306.308      79.845869      130970.54    
  20148000   311.18833     -40694.97       388.66159     -40306.308      79.758393      130970.54    
  20149000   311.18833     -40694.969      388.66159     -40306.307      79.869852      130970.54    
  20150000   311.18833     -40694.966      388.66159     -40306.305      79.845791      130970.54    
  20151000   311.18833     -40694.967      388.66159     -40306.306      79.820483      130970.54    
  20152000   311.18833     -40694.968      388.66159     -40306.307      79.82968       130970.54    
  20153000   311.18833     -40694.965      388.66159     -40306.303      79.81778       130970.54    
  20154000   311.18833     -40694.967      388.66159     -40306.305      79.75627       130970.54    
  20155000   311.18833     -40694.968      388.66159     -40306.306      79.760533      130970.54    
  20156000   311.18833     -40694.968      388.66159     -40306.307      79.85395       130970.54    
  20157000   311.18833     -40694.968      388.66159     -40306.306      79.858448      130970.54    
  20158000   311.18833     -40694.968      388.66159     -40306.306      79.86931       130970.54    
  20159000   311.18833     -40694.966      388.66159     -40306.305      79.807898      130970.54    
  20160000   311.18833     -40694.967      388.66159     -40306.305      79.867129      130970.54    
  20161000   311.18833     -40694.968      388.66159     -40306.307      79.852881      130970.54    
  20162000   311.18833     -40694.966      388.66159     -40306.304      79.875966      130970.54    
  20163000   311.18833     -40694.966      388.66159     -40306.304      79.822612      130970.54    
  20164000   311.18833     -40694.965      388.66159     -40306.304      79.854267      130970.54    
  20165000   311.18833     -40694.951      388.66159     -40306.289      80.082983      130970.54    
  20166000   311.18833     -40694.963      388.66159     -40306.301      79.920621      130970.54    
  20167000   311.18833     -40694.966      388.66159     -40306.304      79.852742      130970.54    
  20168000   311.18833     -40694.968      388.66159     -40306.306      79.881191      130970.54    
  20169000   311.18833     -40694.967      388.66159     -40306.306      79.799267      130970.54    
  20170000   311.18833     -40694.97       388.66159     -40306.308      79.776365      130970.54    
  20171000   311.18833     -40694.965      388.66159     -40306.304      79.867492      130970.54    
  20172000   311.18833     -40694.97       388.66159     -40306.309      79.787081      130970.54    
  20173000   311.18833     -40694.966      388.66159     -40306.304      79.709707      130970.54    
  20174000   311.18833     -40694.967      388.66159     -40306.305      79.768319      130970.54    
  20175000   311.18833     -40694.965      388.66159     -40306.304      79.89879       130970.54    
  20176000   311.18833     -40694.968      388.66159     -40306.307      79.86543       130970.54    
  20177000   311.18833     -40694.969      388.66159     -40306.307      79.876425      130970.54    
  20178000   311.18833     -40694.966      388.66159     -40306.305      79.846781      130970.54    
  20179000   311.18833     -40694.962      388.66159     -40306.301      79.884023      130970.54    
  20180000   311.18833     -40694.967      388.66159     -40306.305      79.850354      130970.54    
  20181000   311.18833     -40694.964      388.66159     -40306.302      79.89184       130970.54    
  20182000   311.18833     -40694.968      388.66159     -40306.306      79.883529      130970.54    
  20183000   311.18833     -40694.965      388.66159     -40306.304      79.833118      130970.54    
  20184000   311.18833     -40694.965      388.66159     -40306.303      79.898223      130970.54    
  20185000   311.18833     -40694.967      388.66159     -40306.306      79.884324      130970.54    
  20186000   311.18833     -40694.966      388.66159     -40306.304      79.859337      130970.54    
  20187000   311.18833     -40694.966      388.66159     -40306.304      79.850717      130970.54    
  20188000   311.18833     -40694.968      388.66159     -40306.306      79.780065      130970.54    
  20189000   311.18833     -40694.97       388.66159     -40306.308      79.853656      130970.54    
  20190000   311.18833     -40694.966      388.66159     -40306.304      79.787656      130970.54    
  20191000   311.18833     -40694.968      388.66159     -40306.307      79.808162      130970.54    
  20192000   311.18833     -40694.966      388.66159     -40306.305      79.844148      130970.54    
  20193000   311.18833     -40694.967      388.66159     -40306.306      79.762887      130970.54    
  20194000   311.18833     -40694.961      388.66159     -40306.3        79.863743      130970.54    
  20195000   311.18833     -40694.966      388.66159     -40306.305      79.859866      130970.54    
  20196000   311.18833     -40694.964      388.66159     -40306.302      79.774701      130970.54    
  20197000   311.18833     -40694.967      388.66159     -40306.305      79.816073      130970.54    
  20198000   311.18833     -40694.967      388.66159     -40306.306      79.800931      130970.54    
  20199000   311.18833     -40694.966      388.66159     -40306.304      79.843442      130970.54    
  20200000   311.18833     -40694.968      388.66159     -40306.306      79.804694      130970.54    
  20201000   311.18833     -40694.966      388.66159     -40306.305      79.800393      130970.54    
  20202000   311.18833     -40694.966      388.66159     -40306.304      79.914833      130970.54    
  20203000   311.18833     -40694.964      388.66159     -40306.302      79.873586      130970.54    
  20204000   311.18833     -40694.966      388.66159     -40306.305      79.834914      130970.54    
  20205000   311.18833     -40694.965      388.66159     -40306.303      79.856778      130970.54    
  20206000   311.18833     -40694.966      388.66159     -40306.305      79.858167      130970.54    
  20207000   311.18833     -40694.962      388.66159     -40306.301      79.788005      130970.54    
  20208000   311.18833     -40694.969      388.66159     -40306.307      79.798258      130970.54    
  20209000   311.18833     -40694.965      388.66159     -40306.304      79.779385      130970.54    
  20210000   311.18833     -40694.967      388.66159     -40306.305      79.853995      130970.54    
  20211000   311.18833     -40694.964      388.66159     -40306.303      79.859419      130970.54    
  20212000   311.18833     -40694.966      388.66159     -40306.305      79.84227       130970.54    
  20213000   311.18833     -40694.966      388.66159     -40306.305      79.856273      130970.54    
  20214000   311.18833     -40694.968      388.66159     -40306.306      79.815501      130970.54    
  20215000   311.18833     -40694.967      388.66159     -40306.306      79.812172      130970.54    
  20216000   311.18833     -40694.966      388.66159     -40306.304      79.875753      130970.54    
  20217000   311.18833     -40694.965      388.66159     -40306.304      79.835826      130970.54    
  20218000   311.18833     -40694.967      388.66159     -40306.306      79.875459      130970.54    
  20219000   311.18833     -40694.968      388.66159     -40306.307      79.763511      130970.54    
  20220000   311.18833     -40694.968      388.66159     -40306.307      79.828974      130970.54    
  20221000   311.18833     -40694.966      388.66159     -40306.304      79.847001      130970.54    
  20222000   311.18833     -40694.966      388.66159     -40306.305      79.884345      130970.54    
  20223000   311.18833     -40694.966      388.66159     -40306.305      79.889224      130970.54    
  20224000   311.18833     -40694.965      388.66159     -40306.304      79.868895      130970.54    
  20225000   311.18833     -40694.966      388.66159     -40306.305      79.840006      130970.54    
  20226000   311.18833     -40694.966      388.66159     -40306.304      79.843508      130970.54    
  20227000   311.18833     -40694.969      388.66159     -40306.308      79.843829      130970.54    
  20228000   311.18833     -40694.962      388.66159     -40306.3        79.897333      130970.54    
  20229000   311.18833     -40694.969      388.66159     -40306.308      79.797533      130970.54    
  20230000   311.18833     -40694.967      388.66159     -40306.305      79.86549       130970.54    
  20231000   311.18833     -40694.963      388.66159     -40306.302      79.877592      130970.54    
  20232000   311.18833     -40694.967      388.66159     -40306.305      79.861938      130970.54    
  20233000   311.18833     -40694.967      388.66159     -40306.305      79.756143      130970.54    
  20234000   311.18833     -40694.967      388.66159     -40306.306      79.850683      130970.54    
  20235000   311.18833     -40694.968      388.66159     -40306.306      79.829795      130970.54    
  20236000   311.18833     -40694.968      388.66159     -40306.307      79.863139      130970.54    
  20237000   311.18833     -40694.966      388.66159     -40306.305      79.867326      130970.54    
  20238000   311.18833     -40694.969      388.66159     -40306.308      79.812316      130970.54    
  20239000   311.18833     -40694.966      388.66159     -40306.304      79.864911      130970.54    
  20240000   311.18833     -40694.966      388.66159     -40306.305      79.795314      130970.54    
  20241000   311.18833     -40694.966      388.66159     -40306.304      79.848784      130970.54    
  20242000   311.18833     -40694.967      388.66159     -40306.305      79.82306       130970.54    
  20243000   311.18833     -40694.965      388.66159     -40306.303      79.857245      130970.54    
  20244000   311.18833     -40694.969      388.66159     -40306.308      79.838498      130970.54    
  20245000   311.18833     -40694.969      388.66159     -40306.308      79.813896      130970.54    
  20246000   311.18833     -40694.969      388.66159     -40306.307      79.844841      130970.54    
  20247000   311.18833     -40694.966      388.66159     -40306.305      79.886457      130970.54    
  20248000   311.18833     -40694.965      388.66159     -40306.303      79.842306      130970.54    
  20249000   311.18833     -40694.968      388.66159     -40306.307      79.796466      130970.54    
  20250000   311.18833     -40694.97       388.66159     -40306.308      79.760579      130970.54    
  20251000   311.18833     -40694.967      388.66159     -40306.306      79.841463      130970.54    
  20252000   311.18833     -40694.965      388.66159     -40306.303      79.766215      130970.54    
  20253000   311.18833     -40694.967      388.66159     -40306.306      79.792652      130970.54    
  20254000   311.18833     -40694.961      388.66159     -40306.299      79.853969      130970.54    
  20255000   311.18833     -40694.97       388.66159     -40306.308      79.785547      130970.54    
  20256000   311.18833     -40694.964      388.66159     -40306.302      79.85649       130970.54    
  20257000   311.18833     -40694.965      388.66159     -40306.304      79.840798      130970.54    
  20258000   311.18833     -40694.968      388.66159     -40306.306      79.809217      130970.54    
  20259000   311.18833     -40694.967      388.66159     -40306.306      79.797353      130970.54    
  20260000   311.18833     -40694.961      388.66159     -40306.299      79.801058      130970.54    
  20261000   311.18833     -40694.965      388.66159     -40306.304      79.885659      130970.54    
  20262000   311.18833     -40694.963      388.66159     -40306.301      79.912801      130970.54    
  20263000   311.18833     -40694.964      388.66159     -40306.303      79.885204      130970.54    
  20264000   311.18833     -40694.965      388.66159     -40306.303      79.849914      130970.54    
  20265000   311.18833     -40694.965      388.66159     -40306.303      79.931305      130970.54    
  20266000   311.18833     -40694.968      388.66159     -40306.307      79.81758       130970.54    
  20267000   311.18833     -40694.966      388.66159     -40306.305      79.889648      130970.54    
  20268000   311.18833     -40694.967      388.66159     -40306.306      79.836373      130970.54    
  20269000   311.18833     -40694.966      388.66159     -40306.305      79.885743      130970.54    
  20270000   311.18833     -40694.966      388.66159     -40306.305      79.870489      130970.54    
  20271000   311.18833     -40694.967      388.66159     -40306.305      79.793984      130970.54    
  20272000   311.18833     -40694.968      388.66159     -40306.307      79.818297      130970.54    
  20273000   311.18833     -40694.964      388.66159     -40306.302      79.902008      130970.54    
  20274000   311.18833     -40694.965      388.66159     -40306.303      79.810644      130970.54    
  20275000   311.18833     -40694.969      388.66159     -40306.307      79.855975      130970.54    
  20276000   311.18833     -40694.969      388.66159     -40306.307      79.832686      130970.54    
  20277000   311.18833     -40694.959      388.66159     -40306.298      79.94383       130970.54    
  20278000   311.18833     -40694.964      388.66159     -40306.302      79.903124      130970.54    
  20279000   311.18833     -40694.97       388.66159     -40306.308      79.756022      130970.54    
  20280000   311.18833     -40694.967      388.66159     -40306.305      79.860544      130970.54    
  20281000   311.18833     -40694.969      388.66159     -40306.307      79.847382      130970.54    
  20282000   311.18833     -40694.967      388.66159     -40306.305      79.784489      130970.54    
  20283000   311.18833     -40694.966      388.66159     -40306.305      79.867059      130970.54    
  20284000   311.18833     -40694.963      388.66159     -40306.301      79.711768      130970.54    
  20285000   311.18833     -40694.963      388.66159     -40306.302      79.789009      130970.54    
  20286000   311.18833     -40694.965      388.66159     -40306.304      79.813229      130970.54    
  20287000   311.18833     -40694.964      388.66159     -40306.302      79.913147      130970.54    
  20288000   311.18833     -40694.968      388.66159     -40306.307      79.755607      130970.54    
  20289000   311.18833     -40694.968      388.66159     -40306.306      79.850756      130970.54    
  20290000   311.18833     -40694.967      388.66159     -40306.306      79.851251      130970.54    
  20291000   311.18833     -40694.969      388.66159     -40306.307      79.756141      130970.54    
  20292000   311.18833     -40694.967      388.66159     -40306.305      79.813798      130970.54    
  20293000   311.18833     -40694.967      388.66159     -40306.306      79.851915      130970.54    
  20294000   311.18833     -40694.968      388.66159     -40306.306      79.82618       130970.54    
  20295000   311.18833     -40694.968      388.66159     -40306.307      79.758174      130970.54    
  20296000   311.18833     -40694.968      388.66159     -40306.306      79.816801      130970.54    
  20297000   311.18833     -40694.962      388.66159     -40306.3        79.97019       130970.54    
  20298000   311.18833     -40694.966      388.66159     -40306.305      79.842993      130970.54    
  20299000   311.18833     -40694.963      388.66159     -40306.302      79.891307      130970.54    
  20300000   311.18833     -40694.966      388.66159     -40306.304      79.829326      130970.54    
  20301000   311.18833     -40694.967      388.66159     -40306.306      79.805887      130970.54    
  20302000   311.18833     -40694.967      388.66159     -40306.306      79.862883      130970.54    
  20303000   311.18833     -40694.967      388.66159     -40306.306      79.851354      130970.54    
  20304000   311.18833     -40694.97       388.66159     -40306.308      79.805309      130970.54    
  20305000   311.18833     -40694.964      388.66159     -40306.303      79.870366      130970.54    
  20306000   311.18833     -40694.969      388.66159     -40306.308      79.81129       130970.54    
  20307000   311.18833     -40694.963      388.66159     -40306.302      79.868702      130970.54    
  20308000   311.18833     -40694.965      388.66159     -40306.304      79.813603      130970.54    
  20309000   311.18833     -40694.969      388.66159     -40306.307      79.853266      130970.54    
  20310000   311.18833     -40694.967      388.66159     -40306.305      79.8989        130970.54    
  20311000   311.18833     -40694.968      388.66159     -40306.306      79.794011      130970.54    
  20312000   311.18833     -40694.967      388.66159     -40306.305      79.855598      130970.54    
  20313000   311.18833     -40694.968      388.66159     -40306.306      79.842165      130970.54    
  20314000   311.18833     -40694.97       388.66159     -40306.308      79.759027      130970.54    
  20315000   311.18833     -40694.963      388.66159     -40306.301      79.862099      130970.54    
  20316000   311.18833     -40694.967      388.66159     -40306.305      79.770919      130970.54    
  20317000   311.18833     -40694.969      388.66159     -40306.308      79.792505      130970.54    
  20318000   311.18833     -40694.966      388.66159     -40306.305      79.879923      130970.54    
  20319000   311.18833     -40694.965      388.66159     -40306.304      79.842625      130970.54    
  20320000   311.18833     -40694.966      388.66159     -40306.304      79.861385      130970.54    
  20321000   311.18833     -40694.97       388.66159     -40306.308      79.784666      130970.54    
  20322000   311.18833     -40694.965      388.66159     -40306.303      79.91246       130970.54    
  20323000   311.18833     -40694.967      388.66159     -40306.305      79.858667      130970.54    
  20324000   311.18833     -40694.965      388.66159     -40306.304      79.792685      130970.54    
  20325000   311.18833     -40694.967      388.66159     -40306.305      79.868107      130970.54    
  20326000   311.18833     -40694.967      388.66159     -40306.306      79.850737      130970.54    
  20327000   311.18833     -40694.965      388.66159     -40306.304      79.798714      130970.54    
  20328000   311.18833     -40694.965      388.66159     -40306.303      79.82373       130970.54    
  20329000   311.18833     -40694.968      388.66159     -40306.307      79.737326      130970.54    
  20330000   311.18833     -40694.963      388.66159     -40306.302      79.820953      130970.54    
  20331000   311.18833     -40694.966      388.66159     -40306.305      79.852349      130970.54    
  20332000   311.18833     -40694.968      388.66159     -40306.307      79.825146      130970.54    
  20333000   311.18833     -40694.969      388.66159     -40306.307      79.821218      130970.54    
  20334000   311.18833     -40694.963      388.66159     -40306.302      79.901763      130970.54    
  20335000   311.18833     -40694.966      388.66159     -40306.304      79.847065      130970.54    
  20336000   311.18833     -40694.967      388.66159     -40306.305      79.849643      130970.54    
  20337000   311.18833     -40694.964      388.66159     -40306.303      79.894334      130970.54    
  20338000   311.18833     -40694.967      388.66159     -40306.305      79.895818      130970.54    
  20339000   311.18833     -40694.965      388.66159     -40306.304      79.905957      130970.54    
  20340000   311.18833     -40694.966      388.66159     -40306.304      79.814863      130970.54    
  20341000   311.18833     -40694.97       388.66159     -40306.308      79.785923      130970.54    
  20342000   311.18833     -40694.968      388.66159     -40306.306      79.803458      130970.54    
  20343000   311.18833     -40694.961      388.66159     -40306.299      79.782267      130970.54    
  20344000   311.18833     -40694.966      388.66159     -40306.304      79.832834      130970.54    
  20345000   311.18833     -40694.967      388.66159     -40306.305      79.765918      130970.54    
  20346000   311.18833     -40694.969      388.66159     -40306.308      79.834509      130970.54    
  20347000   311.18833     -40694.967      388.66159     -40306.306      79.896193      130970.54    
  20348000   311.18833     -40694.969      388.66159     -40306.307      79.876959      130970.54    
  20349000   311.18833     -40694.964      388.66159     -40306.303      79.91301       130970.54    
  20350000   311.18833     -40694.968      388.66159     -40306.306      79.864662      130970.54    
  20351000   311.18833     -40694.965      388.66159     -40306.304      79.861038      130970.54    
  20352000   311.18833     -40694.966      388.66159     -40306.304      79.826769      130970.54    
  20353000   311.18833     -40694.967      388.66159     -40306.306      79.815088      130970.54    
  20354000   311.18833     -40694.969      388.66159     -40306.307      79.826708      130970.54    
  20355000   311.18833     -40694.961      388.66159     -40306.3        79.840314      130970.54    
  20356000   311.18833     -40694.965      388.66159     -40306.303      79.790341      130970.54    
  20357000   311.18833     -40694.969      388.66159     -40306.307      79.787285      130970.54    
  20358000   311.18833     -40694.964      388.66159     -40306.303      79.887091      130970.54    
  20359000   311.18833     -40694.965      388.66159     -40306.303      79.908457      130970.54    
  20360000   311.18833     -40694.967      388.66159     -40306.305      79.808932      130970.54    
  20361000   311.18833     -40694.968      388.66159     -40306.307      79.787367      130970.54    
  20362000   311.18833     -40694.967      388.66159     -40306.305      79.824004      130970.54    
  20363000   311.18833     -40694.968      388.66159     -40306.307      79.810324      130970.54    
  20364000   311.18833     -40694.97       388.66159     -40306.308      79.774735      130970.54    
  20365000   311.18833     -40694.964      388.66159     -40306.302      79.827694      130970.54    
  20366000   311.18833     -40694.967      388.66159     -40306.306      79.781686      130970.54    
  20367000   311.18833     -40694.962      388.66159     -40306.3        79.908938      130970.54    
  20368000   311.18833     -40694.968      388.66159     -40306.307      79.807097      130970.54    
  20369000   311.18833     -40694.965      388.66159     -40306.304      79.846266      130970.54    
  20370000   311.18833     -40694.967      388.66159     -40306.305      79.740174      130970.54    
  20371000   311.18833     -40694.969      388.66159     -40306.308      79.826846      130970.54    
  20372000   311.18833     -40694.967      388.66159     -40306.305      79.879022      130970.54    
  20373000   311.18833     -40694.966      388.66159     -40306.304      79.831713      130970.54    
  20374000   311.18833     -40694.967      388.66159     -40306.306      79.809552      130970.54    
  20375000   311.18833     -40694.968      388.66159     -40306.306      79.806661      130970.54    
  20376000   311.18833     -40694.969      388.66159     -40306.307      79.793189      130970.54    
  20377000   311.18833     -40694.968      388.66159     -40306.306      79.773677      130970.54    
  20378000   311.18833     -40694.969      388.66159     -40306.308      79.799453      130970.54    
  20379000   311.18833     -40694.967      388.66159     -40306.306      79.839771      130970.54    
  20380000   311.18833     -40694.967      388.66159     -40306.305      79.779667      130970.54    
  20381000   311.18833     -40694.969      388.66159     -40306.307      79.823877      130970.54    
  20382000   311.18833     -40694.969      388.66159     -40306.308      79.847177      130970.54    
  20383000   311.18833     -40694.968      388.66159     -40306.306      79.834131      130970.54    
  20384000   311.18833     -40694.967      388.66159     -40306.305      79.858935      130970.54    
  20385000   311.18833     -40694.965      388.66159     -40306.303      79.789769      130970.54    
  20386000   311.18833     -40694.967      388.66159     -40306.306      79.767844      130970.54    
  20387000   311.18833     -40694.968      388.66159     -40306.306      79.793185      130970.54    
  20388000   311.18833     -40694.966      388.66159     -40306.304      79.843962      130970.54    
  20389000   311.18833     -40694.963      388.66159     -40306.301      79.812421      130970.54    
  20390000   311.18833     -40694.963      388.66159     -40306.302      79.843867      130970.54    
  20391000   311.18833     -40694.969      388.66159     -40306.307      79.762328      130970.54    
  20392000   311.18833     -40694.968      388.66159     -40306.306      79.740627      130970.54    
  20393000   311.18833     -40694.966      388.66159     -40306.304      79.846679      130970.54    
  20394000   311.18833     -40694.965      388.66159     -40306.303      79.905986      130970.54    
  20395000   311.18833     -40694.968      388.66159     -40306.307      79.787233      130970.54    
  20396000   311.18833     -40694.964      388.66159     -40306.303      79.833192      130970.54    
  20397000   311.18833     -40694.963      388.66159     -40306.301      79.764505      130970.54    
  20398000   311.18833     -40694.967      388.66159     -40306.305      79.846242      130970.54    
  20399000   311.18833     -40694.969      388.66159     -40306.307      79.723908      130970.54    
  20400000   311.18833     -40694.967      388.66159     -40306.305      79.750073      130970.54    
  20401000   311.18833     -40694.967      388.66159     -40306.305      79.849091      130970.54    
  20402000   311.18833     -40694.97       388.66159     -40306.308      79.805362      130970.54    
  20403000   311.18833     -40694.968      388.66159     -40306.307      79.835966      130970.54    
  20404000   311.18833     -40694.967      388.66159     -40306.306      79.844846      130970.54    
  20405000   311.18833     -40694.966      388.66159     -40306.304      79.875784      130970.54    
  20406000   311.18833     -40694.966      388.66159     -40306.305      79.854084      130970.54    
  20407000   311.18833     -40694.966      388.66159     -40306.305      79.850638      130970.54    
  20408000   311.18833     -40694.967      388.66159     -40306.306      79.710663      130970.54    
  20409000   311.18833     -40694.966      388.66159     -40306.305      79.799814      130970.54    
  20410000   311.18833     -40694.969      388.66159     -40306.307      79.7339        130970.54    
  20411000   311.18833     -40694.965      388.66159     -40306.303      79.819912      130970.54    
  20412000   311.18833     -40694.965      388.66159     -40306.304      79.864674      130970.54    
  20413000   311.18833     -40694.965      388.66159     -40306.304      79.83759       130970.54    
  20414000   311.18833     -40694.965      388.66159     -40306.303      79.789054      130970.54    
  20415000   311.18833     -40694.966      388.66159     -40306.305      79.901542      130970.54    
  20416000   311.18833     -40694.964      388.66159     -40306.303      79.830567      130970.54    
  20417000   311.18833     -40694.963      388.66159     -40306.301      79.958771      130970.54    
  20418000   311.18833     -40694.968      388.66159     -40306.307      79.844642      130970.54    
  20419000   311.18833     -40694.966      388.66159     -40306.305      79.884947      130970.54    
  20420000   311.18833     -40694.97       388.66159     -40306.309      79.815692      130970.54    
  20421000   311.18833     -40694.967      388.66159     -40306.305      79.877737      130970.54    
  20422000   311.18833     -40694.967      388.66159     -40306.306      79.871872      130970.54    
  20423000   311.18833     -40694.967      388.66159     -40306.305      79.779802      130970.54    
  20424000   311.18833     -40694.966      388.66159     -40306.304      79.883355      130970.54    
  20425000   311.18833     -40694.967      388.66159     -40306.306      79.862606      130970.54    
  20426000   311.18833     -40694.966      388.66159     -40306.304      79.846673      130970.54    
  20427000   311.18833     -40694.966      388.66159     -40306.304      79.861412      130970.54    
  20428000   311.18833     -40694.966      388.66159     -40306.304      79.894028      130970.54    
  20429000   311.18833     -40694.968      388.66159     -40306.307      79.811816      130970.54    
  20430000   311.18833     -40694.965      388.66159     -40306.303      79.878818      130970.54    
  20431000   311.18833     -40694.966      388.66159     -40306.305      79.803729      130970.54    
  20432000   311.18833     -40694.966      388.66159     -40306.305      79.907141      130970.54    
  20433000   311.18833     -40694.967      388.66159     -40306.305      79.850242      130970.54    
  20434000   311.18833     -40694.969      388.66159     -40306.308      79.806621      130970.54    
  20435000   311.18833     -40694.96       388.66159     -40306.298      79.994707      130970.54    
  20436000   311.18833     -40694.967      388.66159     -40306.306      79.778677      130970.54    
  20437000   311.18833     -40694.966      388.66159     -40306.304      79.805464      130970.54    
  20438000   311.18833     -40694.967      388.66159     -40306.306      79.841744      130970.54    
  20439000   311.18833     -40694.967      388.66159     -40306.305      79.780385      130970.54    
  20440000   311.18833     -40694.97       388.66159     -40306.308      79.832895      130970.54    
  20441000   311.18833     -40694.967      388.66159     -40306.306      79.807379      130970.54    
  20442000   311.18833     -40694.966      388.66159     -40306.304      79.831933      130970.54    
  20443000   311.18833     -40694.966      388.66159     -40306.304      79.763412      130970.54    
  20444000   311.18833     -40694.96       388.66159     -40306.298      79.878676      130970.54    
  20445000   311.18833     -40694.968      388.66159     -40306.306      79.643495      130970.54    
  20446000   311.18833     -40694.969      388.66159     -40306.307      79.81499       130970.54    
  20447000   311.18833     -40694.966      388.66159     -40306.304      79.891925      130970.54    
  20448000   311.18833     -40694.964      388.66159     -40306.302      79.881979      130970.54    
  20449000   311.18833     -40694.966      388.66159     -40306.304      79.872463      130970.54    
  20450000   311.18833     -40694.967      388.66159     -40306.305      79.817718      130970.54    
  20451000   311.18833     -40694.964      388.66159     -40306.302      79.927565      130970.54    
  20452000   311.18833     -40694.968      388.66159     -40306.306      79.858175      130970.54    
  20453000   311.18833     -40694.968      388.66159     -40306.306      79.744122      130970.54    
  20454000   311.18833     -40694.964      388.66159     -40306.303      79.820504      130970.54    
  20455000   311.18833     -40694.969      388.66159     -40306.307      79.816563      130970.54    
  20456000   311.18833     -40694.967      388.66159     -40306.305      79.740495      130970.54    
  20457000   311.18833     -40694.968      388.66159     -40306.306      79.809203      130970.54    
  20458000   311.18833     -40694.964      388.66159     -40306.302      79.931425      130970.54    
  20459000   311.18833     -40694.965      388.66159     -40306.303      79.874512      130970.54    
  20460000   311.18833     -40694.967      388.66159     -40306.306      79.805692      130970.54    
  20461000   311.18833     -40694.97       388.66159     -40306.308      79.84047       130970.54    
  20462000   311.18833     -40694.965      388.66159     -40306.303      79.885705      130970.54    
  20463000   311.18833     -40694.97       388.66159     -40306.308      79.787278      130970.54    
  20464000   311.18833     -40694.966      388.66159     -40306.305      79.870509      130970.54    
  20465000   311.18833     -40694.967      388.66159     -40306.305      79.805185      130970.54    
  20466000   311.18833     -40694.966      388.66159     -40306.304      79.83904       130970.54    
  20467000   311.18833     -40694.969      388.66159     -40306.307      79.733145      130970.54    
  20468000   311.18833     -40694.966      388.66159     -40306.305      79.869433      130970.54    
  20469000   311.18833     -40694.968      388.66159     -40306.306      79.806252      130970.54    
  20470000   311.18833     -40694.964      388.66159     -40306.303      79.819474      130970.54    
  20471000   311.18833     -40694.967      388.66159     -40306.305      79.860349      130970.54    
  20472000   311.18833     -40694.969      388.66159     -40306.307      79.840032      130970.54    
  20473000   311.18833     -40694.967      388.66159     -40306.305      79.82658       130970.54    
  20474000   311.18833     -40694.963      388.66159     -40306.301      79.855188      130970.54    
  20475000   311.18833     -40694.968      388.66159     -40306.307      79.811328      130970.54    
  20476000   311.18833     -40694.965      388.66159     -40306.304      79.784716      130970.54    
  20477000   311.18833     -40694.966      388.66159     -40306.305      79.83712       130970.54    
  20478000   311.18833     -40694.967      388.66159     -40306.305      79.7832        130970.54    
  20479000   311.18833     -40694.969      388.66159     -40306.307      79.86242       130970.54    
  20480000   311.18833     -40694.964      388.66159     -40306.302      79.870484      130970.54    
  20481000   311.18833     -40694.964      388.66159     -40306.302      79.883662      130970.54    
  20482000   311.18833     -40694.967      388.66159     -40306.305      79.82667       130970.54    
  20483000   311.18833     -40694.963      388.66159     -40306.301      79.839053      130970.54    
  20484000   311.18833     -40694.966      388.66159     -40306.305      79.777462      130970.54    
  20485000   311.18833     -40694.968      388.66159     -40306.307      79.751576      130970.54    
  20486000   311.18833     -40694.966      388.66159     -40306.304      79.818354      130970.54    
  20487000   311.18833     -40694.968      388.66159     -40306.307      79.826487      130970.54    
  20488000   311.18833     -40694.961      388.66159     -40306.299      79.945919      130970.54    
  20489000   311.18833     -40694.968      388.66159     -40306.306      79.865709      130970.54    
  20490000   311.18833     -40694.97       388.66159     -40306.308      79.799378      130970.54    
  20491000   311.18833     -40694.967      388.66159     -40306.306      79.712284      130970.54    
  20492000   311.18833     -40694.968      388.66159     -40306.307      79.843035      130970.54    
  20493000   311.18833     -40694.967      388.66159     -40306.305      79.750258      130970.54    
  20494000   311.18833     -40694.963      388.66159     -40306.302      79.904989      130970.54    
  20495000   311.18833     -40694.968      388.66159     -40306.306      79.867848      130970.54    
  20496000   311.18833     -40694.966      388.66159     -40306.305      79.888438      130970.54    
  20497000   311.18833     -40694.966      388.66159     -40306.304      79.780925      130970.54    
  20498000   311.18833     -40694.968      388.66159     -40306.306      79.833197      130970.54    
  20499000   311.18833     -40694.966      388.66159     -40306.305      79.844531      130970.54    
  20500000   311.18833     -40694.969      388.66159     -40306.307      79.801353      130970.54    
  20501000   311.18833     -40694.968      388.66159     -40306.306      79.829592      130970.54    
  20502000   311.18833     -40694.966      388.66159     -40306.304      79.847252      130970.54    
  20503000   311.18833     -40694.966      388.66159     -40306.305      79.809253      130970.54    
  20504000   311.18833     -40694.969      388.66159     -40306.307      79.843404      130970.54    
  20505000   311.18833     -40694.967      388.66159     -40306.305      79.705852      130970.54    
  20506000   311.18833     -40694.968      388.66159     -40306.306      79.863792      130970.54    
  20507000   311.18833     -40694.965      388.66159     -40306.303      79.839076      130970.54    
  20508000   311.18833     -40694.959      388.66159     -40306.298      79.900572      130970.54    
  20509000   311.18833     -40694.967      388.66159     -40306.305      79.834215      130970.54    
  20510000   311.18833     -40694.968      388.66159     -40306.307      79.811535      130970.54    
  20511000   311.18833     -40694.967      388.66159     -40306.305      79.814206      130970.54    
  20512000   311.18833     -40694.968      388.66159     -40306.306      79.802345      130970.54    
  20513000   311.18833     -40694.969      388.66159     -40306.308      79.803368      130970.54    
  20514000   311.18833     -40694.968      388.66159     -40306.306      79.835952      130970.54    
  20515000   311.18833     -40694.965      388.66159     -40306.304      79.811515      130970.54    
  20516000   311.18833     -40694.967      388.66159     -40306.306      79.761394      130970.54    
  20517000   311.18833     -40694.967      388.66159     -40306.305      79.889824      130970.54    
  20518000   311.18833     -40694.963      388.66159     -40306.302      79.936388      130970.54    
  20519000   311.18833     -40694.969      388.66159     -40306.307      79.715082      130970.54    
  20520000   311.18833     -40694.968      388.66159     -40306.307      79.806801      130970.54    
  20521000   311.18833     -40694.963      388.66159     -40306.302      79.820838      130970.54    
  20522000   311.18833     -40694.968      388.66159     -40306.306      79.884272      130970.54    
  20523000   311.18833     -40694.969      388.66159     -40306.307      79.817444      130970.54    
  20524000   311.18833     -40694.965      388.66159     -40306.303      79.863107      130970.54    
  20525000   311.18833     -40694.967      388.66159     -40306.305      79.816679      130970.54    
  20526000   311.18833     -40694.965      388.66159     -40306.303      79.814968      130970.54    
  20527000   311.18833     -40694.967      388.66159     -40306.305      79.854499      130970.54    
  20528000   311.18833     -40694.968      388.66159     -40306.307      79.791879      130970.54    
  20529000   311.18833     -40694.969      388.66159     -40306.307      79.838516      130970.54    
  20530000   311.18833     -40694.969      388.66159     -40306.307      79.781423      130970.54    
  20531000   311.18833     -40694.967      388.66159     -40306.305      79.864465      130970.54    
  20532000   311.18833     -40694.968      388.66159     -40306.306      79.838621      130970.54    
  20533000   311.18833     -40694.967      388.66159     -40306.306      79.85746       130970.54    
  20534000   311.18833     -40694.963      388.66159     -40306.302      79.912746      130970.54    
  20535000   311.18833     -40694.965      388.66159     -40306.303      79.868137      130970.54    
  20536000   311.18833     -40694.967      388.66159     -40306.305      79.889796      130970.54    
  20537000   311.18833     -40694.969      388.66159     -40306.307      79.791613      130970.54    
  20538000   311.18833     -40694.965      388.66159     -40306.303      79.846714      130970.54    
  20539000   311.18833     -40694.964      388.66159     -40306.302      79.93187       130970.54    
  20540000   311.18833     -40694.967      388.66159     -40306.305      79.836564      130970.54    
  20541000   311.18833     -40694.96       388.66159     -40306.298      79.953115      130970.54    
  20542000   311.18833     -40694.967      388.66159     -40306.305      79.86615       130970.54    
  20543000   311.18833     -40694.967      388.66159     -40306.305      79.879351      130970.54    
  20544000   311.18833     -40694.969      388.66159     -40306.307      79.874606      130970.54    
  20545000   311.18833     -40694.967      388.66159     -40306.306      79.864346      130970.54    
  20546000   311.18833     -40694.968      388.66159     -40306.306      79.810251      130970.54    
  20547000   311.18833     -40694.968      388.66159     -40306.306      79.809089      130970.54    
  20548000   311.18833     -40694.967      388.66159     -40306.306      79.880477      130970.54    
  20549000   311.18833     -40694.965      388.66159     -40306.303      79.891391      130970.54    
  20550000   311.18833     -40694.967      388.66159     -40306.305      79.839204      130970.54    
  20551000   311.18833     -40694.968      388.66159     -40306.306      79.804318      130970.54    
  20552000   311.18833     -40694.966      388.66159     -40306.305      79.879571      130970.54    
  20553000   311.18833     -40694.969      388.66159     -40306.308      79.838333      130970.54    
  20554000   311.18833     -40694.968      388.66159     -40306.306      79.816729      130970.54    
  20555000   311.18833     -40694.962      388.66159     -40306.3        79.93318       130970.54    
  20556000   311.18833     -40694.966      388.66159     -40306.304      79.854695      130970.54    
  20557000   311.18833     -40694.965      388.66159     -40306.303      79.804225      130970.54    
  20558000   311.18833     -40694.965      388.66159     -40306.303      79.801227      130970.54    
  20559000   311.18833     -40694.966      388.66159     -40306.304      79.684391      130970.54    
  20560000   311.18833     -40694.964      388.66159     -40306.302      79.745238      130970.54    
  20561000   311.18833     -40694.969      388.66159     -40306.308      79.735625      130970.54    
  20562000   311.18833     -40694.967      388.66159     -40306.305      79.791315      130970.54    
  20563000   311.18833     -40694.966      388.66159     -40306.304      79.814396      130970.54    
  20564000   311.18833     -40694.967      388.66159     -40306.305      79.840453      130970.54    
  20565000   311.18833     -40694.969      388.66159     -40306.307      79.831201      130970.54    
  20566000   311.18833     -40694.966      388.66159     -40306.305      79.861284      130970.54    
  20567000   311.18833     -40694.965      388.66159     -40306.304      79.802947      130970.54    
  20568000   311.18833     -40694.97       388.66159     -40306.308      79.818952      130970.54    
  20569000   311.18833     -40694.969      388.66159     -40306.308      79.74597       130970.54    
  20570000   311.18833     -40694.969      388.66159     -40306.307      79.754039      130970.54    
  20571000   311.18833     -40694.962      388.66159     -40306.301      79.87434       130970.54    
  20572000   311.18833     -40694.968      388.66159     -40306.306      79.827035      130970.54    
  20573000   311.18833     -40694.967      388.66159     -40306.306      79.846483      130970.54    
  20574000   311.18833     -40694.964      388.66159     -40306.303      79.85199       130970.54    
  20575000   311.18833     -40694.966      388.66159     -40306.304      79.88827       130970.54    
  20576000   311.18833     -40694.964      388.66159     -40306.302      79.939709      130970.54    
  20577000   311.18833     -40694.969      388.66159     -40306.307      79.792332      130970.54    
  20578000   311.18833     -40694.967      388.66159     -40306.305      79.752277      130970.54    
  20579000   311.18833     -40694.966      388.66159     -40306.305      79.740191      130970.54    
  20580000   311.18833     -40694.969      388.66159     -40306.307      79.812641      130970.54    
  20581000   311.18833     -40694.967      388.66159     -40306.306      79.847892      130970.54    
  20582000   311.18833     -40694.964      388.66159     -40306.303      79.908221      130970.54    
  20583000   311.18833     -40694.968      388.66159     -40306.307      79.822165      130970.54    
  20584000   311.18833     -40694.965      388.66159     -40306.303      79.738414      130970.54    
  20585000   311.18833     -40694.967      388.66159     -40306.306      79.843546      130970.54    
  20586000   311.18833     -40694.968      388.66159     -40306.306      79.788604      130970.54    
  20587000   311.18833     -40694.969      388.66159     -40306.307      79.849488      130970.54    
  20588000   311.18833     -40694.967      388.66159     -40306.305      79.848448      130970.54    
  20589000   311.18833     -40694.964      388.66159     -40306.303      79.755768      130970.54    
  20590000   311.18833     -40694.967      388.66159     -40306.305      79.820252      130970.54    
  20591000   311.18833     -40694.966      388.66159     -40306.304      79.915167      130970.54    
  20592000   311.18833     -40694.962      388.66159     -40306.301      79.873571      130970.54    
  20593000   311.18833     -40694.968      388.66159     -40306.307      79.759285      130970.54    
  20594000   311.18833     -40694.966      388.66159     -40306.304      79.845016      130970.54    
  20595000   311.18833     -40694.966      388.66159     -40306.305      79.782667      130970.54    
  20596000   311.18833     -40694.966      388.66159     -40306.305      79.846719      130970.54    
  20597000   311.18833     -40694.965      388.66159     -40306.303      79.846295      130970.54    
  20598000   311.18833     -40694.967      388.66159     -40306.305      79.814827      130970.54    
  20599000   311.18833     -40694.965      388.66159     -40306.303      79.848986      130970.54    
  20600000   311.18833     -40694.969      388.66159     -40306.307      79.82004       130970.54    
  20601000   311.18833     -40694.966      388.66159     -40306.304      79.793915      130970.54    
  20602000   311.18833     -40694.968      388.66159     -40306.307      79.777981      130970.54    
  20603000   311.18833     -40694.968      388.66159     -40306.306      79.847644      130970.54    
  20604000   311.18833     -40694.967      388.66159     -40306.305      79.832854      130970.54    
  20605000   311.18833     -40694.964      388.66159     -40306.303      79.803522      130970.54    
  20606000   311.18833     -40694.962      388.66159     -40306.301      79.864537      130970.54    
  20607000   311.18833     -40694.965      388.66159     -40306.304      79.865         130970.54    
  20608000   311.18833     -40694.969      388.66159     -40306.307      79.856422      130970.54    
  20609000   311.18833     -40694.968      388.66159     -40306.307      79.824893      130970.54    
  20610000   311.18833     -40694.964      388.66159     -40306.303      79.897799      130970.54    
  20611000   311.18833     -40694.963      388.66159     -40306.302      79.884503      130970.54    
  20612000   311.18833     -40694.969      388.66159     -40306.307      79.814422      130970.54    
  20613000   311.18833     -40694.966      388.66159     -40306.305      79.877304      130970.54    
  20614000   311.18833     -40694.967      388.66159     -40306.305      79.86127       130970.54    
  20615000   311.18833     -40694.968      388.66159     -40306.306      79.83746       130970.54    
  20616000   311.18833     -40694.965      388.66159     -40306.304      79.859567      130970.54    
  20617000   311.18833     -40694.967      388.66159     -40306.305      79.776689      130970.54    
  20618000   311.18833     -40694.966      388.66159     -40306.304      79.809552      130970.54    
  20619000   311.18833     -40694.967      388.66159     -40306.305      79.851662      130970.54    
  20620000   311.18833     -40694.966      388.66159     -40306.304      79.811846      130970.54    
  20621000   311.18833     -40694.968      388.66159     -40306.306      79.814959      130970.54    
  20622000   311.18833     -40694.967      388.66159     -40306.306      79.818083      130970.54    
  20623000   311.18833     -40694.968      388.66159     -40306.306      79.831757      130970.54    
  20624000   311.18833     -40694.966      388.66159     -40306.304      79.846057      130970.54    
  20625000   311.18833     -40694.962      388.66159     -40306.3        79.834607      130970.54    
  20626000   311.18833     -40694.967      388.66159     -40306.305      79.862426      130970.54    
  20627000   311.18833     -40694.964      388.66159     -40306.302      79.830919      130970.54    
  20628000   311.18833     -40694.968      388.66159     -40306.306      79.849691      130970.54    
  20629000   311.18833     -40694.966      388.66159     -40306.304      79.831888      130970.54    
  20630000   311.18833     -40694.968      388.66159     -40306.306      79.792746      130970.54    
  20631000   311.18833     -40694.968      388.66159     -40306.306      79.823557      130970.54    
  20632000   311.18833     -40694.969      388.66159     -40306.307      79.788034      130970.54    
  20633000   311.18833     -40694.969      388.66159     -40306.308      79.801341      130970.54    
  20634000   311.18833     -40694.968      388.66159     -40306.306      79.836799      130970.54    
  20635000   311.18833     -40694.964      388.66159     -40306.302      79.862497      130970.54    
  20636000   311.18833     -40694.967      388.66159     -40306.305      79.815205      130970.54    
  20637000   311.18833     -40694.966      388.66159     -40306.305      79.807948      130970.54    
  20638000   311.18833     -40694.963      388.66159     -40306.301      79.85193       130970.54    
  20639000   311.18833     -40694.966      388.66159     -40306.305      79.900092      130970.54    
  20640000   311.18833     -40694.967      388.66159     -40306.306      79.792556      130970.54    
  20641000   311.18833     -40694.966      388.66159     -40306.305      79.851257      130970.54    
  20642000   311.18833     -40694.968      388.66159     -40306.306      79.80487       130970.54    
  20643000   311.18833     -40694.965      388.66159     -40306.303      79.876507      130970.54    
  20644000   311.18833     -40694.967      388.66159     -40306.305      79.848099      130970.54    
  20645000   311.18833     -40694.965      388.66159     -40306.303      79.858524      130970.54    
  20646000   311.18833     -40694.965      388.66159     -40306.304      79.830606      130970.54    
  20647000   311.18833     -40694.965      388.66159     -40306.303      79.858441      130970.54    
  20648000   311.18833     -40694.967      388.66159     -40306.305      79.837238      130970.54    
  20649000   311.18833     -40694.966      388.66159     -40306.304      79.837701      130970.54    
  20650000   311.18833     -40694.967      388.66159     -40306.305      79.838914      130970.54    
  20651000   311.18833     -40694.968      388.66159     -40306.306      79.82546       130970.54    
  20652000   311.18833     -40694.969      388.66159     -40306.307      79.833742      130970.54    
  20653000   311.18833     -40694.964      388.66159     -40306.302      79.881419      130970.54    
  20654000   311.18833     -40694.966      388.66159     -40306.304      79.886259      130970.54    
  20655000   311.18833     -40694.969      388.66159     -40306.308      79.835556      130970.54    
  20656000   311.18833     -40694.964      388.66159     -40306.303      79.833966      130970.54    
  20657000   311.18833     -40694.967      388.66159     -40306.305      79.843623      130970.54    
  20658000   311.18833     -40694.968      388.66159     -40306.307      79.827691      130970.54    
  20659000   311.18833     -40694.967      388.66159     -40306.305      79.877505      130970.54    
  20660000   311.18833     -40694.958      388.66159     -40306.297      79.944915      130970.54    
  20661000   311.18833     -40694.966      388.66159     -40306.304      79.882521      130970.54    
  20662000   311.18833     -40694.97       388.66159     -40306.308      79.827585      130970.54    
  20663000   311.18833     -40694.968      388.66159     -40306.306      79.844259      130970.54    
  20664000   311.18833     -40694.963      388.66159     -40306.302      79.913274      130970.54    
  20665000   311.18833     -40694.966      388.66159     -40306.304      79.79324       130970.54    
  20666000   311.18833     -40694.965      388.66159     -40306.303      79.860919      130970.54    
  20667000   311.18833     -40694.967      388.66159     -40306.306      79.804806      130970.54    
  20668000   311.18833     -40694.969      388.66159     -40306.307      79.697367      130970.54    
  20669000   311.18833     -40694.966      388.66159     -40306.304      79.863936      130970.54    
  20670000   311.18833     -40694.97       388.66159     -40306.308      79.816945      130970.54    
  20671000   311.18833     -40694.968      388.66159     -40306.306      79.745685      130970.54    
  20672000   311.18833     -40694.961      388.66159     -40306.3        79.812972      130970.54    
  20673000   311.18833     -40694.969      388.66159     -40306.307      79.827233      130970.54    
  20674000   311.18833     -40694.97       388.66159     -40306.308      79.818275      130970.54    
  20675000   311.18833     -40694.965      388.66159     -40306.304      79.778714      130970.54    
  20676000   311.18833     -40694.968      388.66159     -40306.306      79.734677      130970.54    
  20677000   311.18833     -40694.964      388.66159     -40306.302      79.799282      130970.54    
  20678000   311.18833     -40694.967      388.66159     -40306.305      79.871692      130970.54    
  20679000   311.18833     -40694.968      388.66159     -40306.306      79.869169      130970.54    
  20680000   311.18833     -40694.966      388.66159     -40306.304      79.901137      130970.54    
  20681000   311.18833     -40694.967      388.66159     -40306.306      79.841636      130970.54    
  20682000   311.18833     -40694.968      388.66159     -40306.306      79.8466        130970.54    
  20683000   311.18833     -40694.967      388.66159     -40306.306      79.897037      130970.54    
  20684000   311.18833     -40694.966      388.66159     -40306.305      79.796913      130970.54    
  20685000   311.18833     -40694.968      388.66159     -40306.306      79.820427      130970.54    
  20686000   311.18833     -40694.968      388.66159     -40306.306      79.735486      130970.54    
  20687000   311.18833     -40694.969      388.66159     -40306.307      79.831789      130970.54    
  20688000   311.18833     -40694.967      388.66159     -40306.305      79.845235      130970.54    
  20689000   311.18833     -40694.969      388.66159     -40306.307      79.772141      130970.54    
  20690000   311.18833     -40694.961      388.66159     -40306.299      79.858808      130970.54    
  20691000   311.18833     -40694.97       388.66159     -40306.308      79.748922      130970.54    
  20692000   311.18833     -40694.967      388.66159     -40306.306      79.853576      130970.54    
  20693000   311.18833     -40694.969      388.66159     -40306.307      79.815069      130970.54    
  20694000   311.18833     -40694.966      388.66159     -40306.304      79.817784      130970.54    
  20695000   311.18833     -40694.964      388.66159     -40306.303      79.880972      130970.54    
  20696000   311.18833     -40694.967      388.66159     -40306.306      79.858421      130970.54    
  20697000   311.18833     -40694.967      388.66159     -40306.305      79.697878      130970.54    
  20698000   311.18833     -40694.967      388.66159     -40306.305      79.856508      130970.54    
  20699000   311.18833     -40694.967      388.66159     -40306.306      79.827807      130970.54    
  20700000   311.18833     -40694.968      388.66159     -40306.307      79.815496      130970.54    
  20701000   311.18833     -40694.968      388.66159     -40306.307      79.797136      130970.54    
  20702000   311.18833     -40694.969      388.66159     -40306.307      79.829773      130970.54    
  20703000   311.18833     -40694.965      388.66159     -40306.303      79.872607      130970.54    
  20704000   311.18833     -40694.965      388.66159     -40306.303      79.881117      130970.54    
  20705000   311.18833     -40694.969      388.66159     -40306.307      79.840905      130970.54    
  20706000   311.18833     -40694.957      388.66159     -40306.296      79.767883      130970.54    
  20707000   311.18833     -40694.967      388.66159     -40306.306      79.810523      130970.54    
  20708000   311.18833     -40694.967      388.66159     -40306.305      79.797182      130970.54    
  20709000   311.18833     -40694.969      388.66159     -40306.307      79.816267      130970.54    
  20710000   311.18833     -40694.968      388.66159     -40306.306      79.82624       130970.54    
  20711000   311.18833     -40694.969      388.66159     -40306.308      79.85268       130970.54    
  20712000   311.18833     -40694.966      388.66159     -40306.304      79.750984      130970.54    
  20713000   311.18833     -40694.968      388.66159     -40306.306      79.761107      130970.54    
  20714000   311.18833     -40694.968      388.66159     -40306.306      79.880323      130970.54    
  20715000   311.18833     -40694.967      388.66159     -40306.305      79.885094      130970.54    
  20716000   311.18833     -40694.969      388.66159     -40306.307      79.854924      130970.54    
  20717000   311.18833     -40694.969      388.66159     -40306.307      79.754022      130970.54    
  20718000   311.18833     -40694.969      388.66159     -40306.307      79.760004      130970.54    
  20719000   311.18833     -40694.969      388.66159     -40306.308      79.818867      130970.54    
  20720000   311.18833     -40694.966      388.66159     -40306.305      79.882143      130970.54    
  20721000   311.18833     -40694.965      388.66159     -40306.304      79.686001      130970.54    
  20722000   311.18833     -40694.968      388.66159     -40306.306      79.806026      130970.54    
  20723000   311.18833     -40694.965      388.66159     -40306.303      79.75419       130970.54    
  20724000   311.18833     -40694.968      388.66159     -40306.306      79.830972      130970.54    
  20725000   311.18833     -40694.963      388.66159     -40306.302      79.868531      130970.54    
  20726000   311.18833     -40694.969      388.66159     -40306.307      79.847333      130970.54    
  20727000   311.18833     -40694.969      388.66159     -40306.308      79.789422      130970.54    
  20728000   311.18833     -40694.969      388.66159     -40306.307      79.803932      130970.54    
  20729000   311.18833     -40694.967      388.66159     -40306.305      79.870707      130970.54    
  20730000   311.18833     -40694.966      388.66159     -40306.305      79.911612      130970.54    
  20731000   311.18833     -40694.967      388.66159     -40306.305      79.711921      130970.54    
  20732000   311.18833     -40694.965      388.66159     -40306.303      79.926592      130970.54    
  20733000   311.18833     -40694.965      388.66159     -40306.304      79.833777      130970.54    
  20734000   311.18833     -40694.967      388.66159     -40306.305      79.84082       130970.54    
  20735000   311.18833     -40694.966      388.66159     -40306.305      79.847631      130970.54    
  20736000   311.18833     -40694.968      388.66159     -40306.306      79.817279      130970.54    
  20737000   311.18833     -40694.968      388.66159     -40306.306      79.760445      130970.54    
  20738000   311.18833     -40694.96       388.66159     -40306.298      79.887319      130970.54    
  20739000   311.18833     -40694.969      388.66159     -40306.308      79.81144       130970.54    
  20740000   311.18833     -40694.961      388.66159     -40306.3        79.954458      130970.54    
  20741000   311.18833     -40694.968      388.66159     -40306.306      79.861657      130970.54    
  20742000   311.18833     -40694.969      388.66159     -40306.307      79.809565      130970.54    
  20743000   311.18833     -40694.97       388.66159     -40306.308      79.820991      130970.54    
  20744000   311.18833     -40694.969      388.66159     -40306.308      79.745812      130970.54    
  20745000   311.18833     -40694.969      388.66159     -40306.307      79.781651      130970.54    
  20746000   311.18833     -40694.965      388.66159     -40306.303      79.88806       130970.54    
  20747000   311.18833     -40694.97       388.66159     -40306.308      79.816054      130970.54    
  20748000   311.18833     -40694.967      388.66159     -40306.305      79.719649      130970.54    
  20749000   311.18833     -40694.968      388.66159     -40306.307      79.870337      130970.54    
  20750000   311.18833     -40694.965      388.66159     -40306.303      79.877783      130970.54    
  20751000   311.18833     -40694.968      388.66159     -40306.306      79.800593      130970.54    
  20752000   311.18833     -40694.969      388.66159     -40306.308      79.774929      130970.54    
  20753000   311.18833     -40694.964      388.66159     -40306.302      79.805605      130970.54    
  20754000   311.18833     -40694.964      388.66159     -40306.302      79.924041      130970.54    
  20755000   311.18833     -40694.965      388.66159     -40306.303      79.768746      130970.54    
  20756000   311.18833     -40694.963      388.66159     -40306.302      79.916594      130970.54    
  20757000   311.18833     -40694.963      388.66159     -40306.301      79.958487      130970.54    
  20758000   311.18833     -40694.968      388.66159     -40306.307      79.735696      130970.54    
  20759000   311.18833     -40694.967      388.66159     -40306.306      79.824005      130970.54    
  20760000   311.18833     -40694.965      388.66159     -40306.303      79.881848      130970.54    
  20761000   311.18833     -40694.97       388.66159     -40306.308      79.778493      130970.54    
  20762000   311.18833     -40694.968      388.66159     -40306.307      79.813308      130970.54    
  20763000   311.18833     -40694.968      388.66159     -40306.307      79.855147      130970.54    
  20764000   311.18833     -40694.966      388.66159     -40306.305      79.893154      130970.54    
  20765000   311.18833     -40694.965      388.66159     -40306.304      79.788024      130970.54    
  20766000   311.18833     -40694.965      388.66159     -40306.304      79.798537      130970.54    
  20767000   311.18833     -40694.969      388.66159     -40306.308      79.757598      130970.54    
  20768000   311.18833     -40694.967      388.66159     -40306.305      79.857155      130970.54    
  20769000   311.18833     -40694.961      388.66159     -40306.3        79.911537      130970.54    
  20770000   311.18833     -40694.969      388.66159     -40306.307      79.780865      130970.54    
  20771000   311.18833     -40694.966      388.66159     -40306.304      79.866809      130970.54    
  20772000   311.18833     -40694.97       388.66159     -40306.309      79.79911       130970.54    
  20773000   311.18833     -40694.966      388.66159     -40306.305      79.815946      130970.54    
  20774000   311.18833     -40694.965      388.66159     -40306.304      79.907156      130970.54    
  20775000   311.18833     -40694.968      388.66159     -40306.306      79.866235      130970.54    
  20776000   311.18833     -40694.966      388.66159     -40306.305      79.866207      130970.54    
  20777000   311.18833     -40694.969      388.66159     -40306.308      79.809634      130970.54    
  20778000   311.18833     -40694.97       388.66159     -40306.308      79.739059      130970.54    
  20779000   311.18833     -40694.968      388.66159     -40306.307      79.784661      130970.54    
  20780000   311.18833     -40694.97       388.66159     -40306.308      79.810661      130970.54    
  20781000   311.18833     -40694.969      388.66159     -40306.308      79.818231      130970.54    
  20782000   311.18833     -40694.968      388.66159     -40306.307      79.839665      130970.54    
  20783000   311.18833     -40694.967      388.66159     -40306.306      79.868652      130970.54    
  20784000   311.18833     -40694.967      388.66159     -40306.305      79.772587      130970.54    
  20785000   311.18833     -40694.966      388.66159     -40306.305      79.88504       130970.54    
  20786000   311.18833     -40694.97       388.66159     -40306.308      79.793283      130970.54    
  20787000   311.18833     -40694.964      388.66159     -40306.302      79.745763      130970.54    
  20788000   311.18833     -40694.967      388.66159     -40306.305      79.88284       130970.54    
  20789000   311.18833     -40694.968      388.66159     -40306.307      79.836498      130970.54    
  20790000   311.18833     -40694.966      388.66159     -40306.305      79.77327       130970.54    
  20791000   311.18833     -40694.969      388.66159     -40306.307      79.814015      130970.54    
  20792000   311.18833     -40694.964      388.66159     -40306.303      79.84639       130970.54    
  20793000   311.18833     -40694.969      388.66159     -40306.307      79.86188       130970.54    
  20794000   311.18833     -40694.967      388.66159     -40306.305      79.861844      130970.54    
  20795000   311.18833     -40694.967      388.66159     -40306.305      79.773198      130970.54    
  20796000   311.18833     -40694.968      388.66159     -40306.307      79.795119      130970.54    
  20797000   311.18833     -40694.968      388.66159     -40306.306      79.823761      130970.54    
  20798000   311.18833     -40694.967      388.66159     -40306.305      79.883606      130970.54    
  20799000   311.18833     -40694.964      388.66159     -40306.303      79.86025       130970.54    
  20800000   311.18833     -40694.967      388.66159     -40306.305      79.865245      130970.54    
  20801000   311.18833     -40694.965      388.66159     -40306.304      79.881975      130970.54    
  20802000   311.18833     -40694.967      388.66159     -40306.306      79.772266      130970.54    
  20803000   311.18833     -40694.967      388.66159     -40306.305      79.773318      130970.54    
  20804000   311.18833     -40694.964      388.66159     -40306.302      79.849948      130970.54    
  20805000   311.18833     -40694.964      388.66159     -40306.302      79.921171      130970.54    
  20806000   311.18833     -40694.97       388.66159     -40306.309      79.781487      130970.54    
  20807000   311.18833     -40694.969      388.66159     -40306.308      79.791219      130970.54    
  20808000   311.18833     -40694.967      388.66159     -40306.306      79.827732      130970.54    
  20809000   311.18833     -40694.968      388.66159     -40306.307      79.825677      130970.54    
  20810000   311.18833     -40694.962      388.66159     -40306.3        79.943188      130970.54    
  20811000   311.18833     -40694.969      388.66159     -40306.307      79.866142      130970.54    
  20812000   311.18833     -40694.967      388.66159     -40306.305      79.854279      130970.54    
  20813000   311.18833     -40694.967      388.66159     -40306.306      79.863303      130970.54    
  20814000   311.18833     -40694.966      388.66159     -40306.305      79.884525      130970.54    
  20815000   311.18833     -40694.97       388.66159     -40306.308      79.745675      130970.54    
  20816000   311.18833     -40694.968      388.66159     -40306.306      79.79253       130970.54    
  20817000   311.18833     -40694.968      388.66159     -40306.307      79.80673       130970.54    
  20818000   311.18833     -40694.968      388.66159     -40306.306      79.814333      130970.54    
  20819000   311.18833     -40694.969      388.66159     -40306.307      79.724707      130970.54    
  20820000   311.18833     -40694.968      388.66159     -40306.306      79.846833      130970.54    
  20821000   311.18833     -40694.968      388.66159     -40306.306      79.766513      130970.54    
  20822000   311.18833     -40694.969      388.66159     -40306.307      79.855958      130970.54    
  20823000   311.18833     -40694.964      388.66159     -40306.302      79.860454      130970.54    
  20824000   311.18833     -40694.967      388.66159     -40306.305      79.855484      130970.54    
  20825000   311.18833     -40694.967      388.66159     -40306.306      79.781596      130970.54    
  20826000   311.18833     -40694.961      388.66159     -40306.3        79.883936      130970.54    
  20827000   311.18833     -40694.968      388.66159     -40306.307      79.79382       130970.54    
  20828000   311.18833     -40694.968      388.66159     -40306.307      79.781944      130970.54    
  20829000   311.18833     -40694.963      388.66159     -40306.301      79.923385      130970.54    
  20830000   311.18833     -40694.964      388.66159     -40306.303      79.669996      130970.54    
  20831000   311.18833     -40694.968      388.66159     -40306.307      79.850076      130970.54    
  20832000   311.18833     -40694.97       388.66159     -40306.308      79.709757      130970.54    
  20833000   311.18833     -40694.966      388.66159     -40306.305      79.870247      130970.54    
  20834000   311.18833     -40694.968      388.66159     -40306.306      79.858431      130970.54    
  20835000   311.18833     -40694.962      388.66159     -40306.301      79.865218      130970.54    
  20836000   311.18833     -40694.963      388.66159     -40306.301      79.87833       130970.54    
  20837000   311.18833     -40694.969      388.66159     -40306.307      79.832242      130970.54    
  20838000   311.18833     -40694.968      388.66159     -40306.306      79.817806      130970.54    
  20839000   311.18833     -40694.966      388.66159     -40306.304      79.884336      130970.54    
  20840000   311.18833     -40694.965      388.66159     -40306.304      79.866781      130970.54    
  20841000   311.18833     -40694.966      388.66159     -40306.305      79.820876      130970.54    
  20842000   311.18833     -40694.967      388.66159     -40306.306      79.855309      130970.54    
  20843000   311.18833     -40694.966      388.66159     -40306.305      79.835992      130970.54    
  20844000   311.18833     -40694.966      388.66159     -40306.305      79.773084      130970.54    
  20845000   311.18833     -40694.967      388.66159     -40306.305      79.84674       130970.54    
  20846000   311.18833     -40694.958      388.66159     -40306.297      79.948253      130970.54    
  20847000   311.18833     -40694.968      388.66159     -40306.306      79.774029      130970.54    
  20848000   311.18833     -40694.965      388.66159     -40306.304      79.868258      130970.54    
  20849000   311.18833     -40694.967      388.66159     -40306.306      79.813172      130970.54    
  20850000   311.18833     -40694.965      388.66159     -40306.303      79.784691      130970.54    
  20851000   311.18833     -40694.962      388.66159     -40306.301      79.820206      130970.54    
  20852000   311.18833     -40694.967      388.66159     -40306.306      79.844354      130970.54    
  20853000   311.18833     -40694.965      388.66159     -40306.303      79.918034      130970.54    
  20854000   311.18833     -40694.968      388.66159     -40306.307      79.858138      130970.54    
  20855000   311.18833     -40694.967      388.66159     -40306.305      79.857295      130970.54    
  20856000   311.18833     -40694.965      388.66159     -40306.303      79.8654        130970.54    
  20857000   311.18833     -40694.969      388.66159     -40306.307      79.777421      130970.54    
  20858000   311.18833     -40694.97       388.66159     -40306.309      79.792257      130970.54    
  20859000   311.18833     -40694.968      388.66159     -40306.306      79.848637      130970.54    
  20860000   311.18833     -40694.969      388.66159     -40306.307      79.832508      130970.54    
  20861000   311.18833     -40694.966      388.66159     -40306.304      79.874962      130970.54    
  20862000   311.18833     -40694.964      388.66159     -40306.303      79.828796      130970.54    
  20863000   311.18833     -40694.969      388.66159     -40306.308      79.822429      130970.54    
  20864000   311.18833     -40694.969      388.66159     -40306.308      79.815473      130970.54    
  20865000   311.18833     -40694.968      388.66159     -40306.306      79.753814      130970.54    
  20866000   311.18833     -40694.962      388.66159     -40306.3        79.880442      130970.54    
  20867000   311.18833     -40694.969      388.66159     -40306.308      79.772029      130970.54    
  20868000   311.18833     -40694.964      388.66159     -40306.302      79.932393      130970.54    
  20869000   311.18833     -40694.969      388.66159     -40306.307      79.820267      130970.54    
  20870000   311.18833     -40694.966      388.66159     -40306.304      79.738948      130970.54    
  20871000   311.18833     -40694.97       388.66159     -40306.308      79.807435      130970.54    
  20872000   311.18833     -40694.963      388.66159     -40306.301      79.932963      130970.54    
  20873000   311.18833     -40694.966      388.66159     -40306.305      79.825985      130970.54    
  20874000   311.18833     -40694.967      388.66159     -40306.305      79.848951      130970.54    
  20875000   311.18833     -40694.966      388.66159     -40306.305      79.798542      130970.54    
  20876000   311.18833     -40694.964      388.66159     -40306.303      79.864454      130970.54    
  20877000   311.18833     -40694.966      388.66159     -40306.304      79.816569      130970.54    
  20878000   311.18833     -40694.964      388.66159     -40306.303      79.937182      130970.54    
  20879000   311.18833     -40694.965      388.66159     -40306.303      79.841259      130970.54    
  20880000   311.18833     -40694.968      388.66159     -40306.306      79.875778      130970.54    
  20881000   311.18833     -40694.963      388.66159     -40306.302      79.949105      130970.54    
  20882000   311.18833     -40694.969      388.66159     -40306.307      79.761228      130970.54    
  20883000   311.18833     -40694.967      388.66159     -40306.305      79.827724      130970.54    
  20884000   311.18833     -40694.966      388.66159     -40306.305      79.752144      130970.54    
  20885000   311.18833     -40694.965      388.66159     -40306.303      79.801573      130970.54    
  20886000   311.18833     -40694.967      388.66159     -40306.306      79.751948      130970.54    
  20887000   311.18833     -40694.968      388.66159     -40306.307      79.849654      130970.54    
  20888000   311.18833     -40694.963      388.66159     -40306.302      79.88879       130970.54    
  20889000   311.18833     -40694.968      388.66159     -40306.307      79.820583      130970.54    
  20890000   311.18833     -40694.965      388.66159     -40306.303      79.839754      130970.54    
  20891000   311.18833     -40694.963      388.66159     -40306.301      79.802061      130970.54    
  20892000   311.18833     -40694.962      388.66159     -40306.301      79.843773      130970.54    
  20893000   311.18833     -40694.968      388.66159     -40306.307      79.795149      130970.54    
  20894000   311.18833     -40694.956      388.66159     -40306.294      79.988407      130970.54    
  20895000   311.18833     -40694.967      388.66159     -40306.306      79.797223      130970.54    
  20896000   311.18833     -40694.967      388.66159     -40306.306      79.824501      130970.54    
  20897000   311.18833     -40694.963      388.66159     -40306.302      79.874974      130970.54    
  20898000   311.18833     -40694.964      388.66159     -40306.303      79.827723      130970.54    
  20899000   311.18833     -40694.963      388.66159     -40306.302      79.904453      130970.54    
  20900000   311.18833     -40694.967      388.66159     -40306.305      79.779174      130970.54    
  20901000   311.18833     -40694.968      388.66159     -40306.306      79.820004      130970.54    
  20902000   311.18833     -40694.965      388.66159     -40306.303      79.871886      130970.54    
  20903000   311.18833     -40694.964      388.66159     -40306.302      79.925773      130970.54    
  20904000   311.18833     -40694.968      388.66159     -40306.307      79.790607      130970.54    
  20905000   311.18833     -40694.963      388.66159     -40306.302      79.928704      130970.54    
  20906000   311.18833     -40694.966      388.66159     -40306.304      79.799055      130970.54    
  20907000   311.18833     -40694.968      388.66159     -40306.306      79.791022      130970.54    
  20908000   311.18833     -40694.968      388.66159     -40306.307      79.805397      130970.54    
  20909000   311.18833     -40694.969      388.66159     -40306.307      79.760034      130970.54    
  20910000   311.18833     -40694.969      388.66159     -40306.308      79.823897      130970.54    
  20911000   311.18833     -40694.965      388.66159     -40306.303      79.892204      130970.54    
  20912000   311.18833     -40694.964      388.66159     -40306.302      79.894921      130970.54    
  20913000   311.18833     -40694.966      388.66159     -40306.305      79.864596      130970.54    
  20914000   311.18833     -40694.97       388.66159     -40306.308      79.799983      130970.54    
  20915000   311.18833     -40694.966      388.66159     -40306.305      79.865546      130970.54    
  20916000   311.18833     -40694.967      388.66159     -40306.305      79.820582      130970.54    
  20917000   311.18833     -40694.965      388.66159     -40306.303      79.875593      130970.54    
  20918000   311.18833     -40694.967      388.66159     -40306.306      79.739365      130970.54    
  20919000   311.18833     -40694.969      388.66159     -40306.307      79.718182      130970.54    
  20920000   311.18833     -40694.968      388.66159     -40306.306      79.792394      130970.54    
  20921000   311.18833     -40694.968      388.66159     -40306.306      79.815664      130970.54    
  20922000   311.18833     -40694.966      388.66159     -40306.304      79.84195       130970.54    
  20923000   311.18833     -40694.966      388.66159     -40306.304      79.849173      130970.54    
  20924000   311.18833     -40694.963      388.66159     -40306.301      79.91629       130970.54    
  20925000   311.18833     -40694.966      388.66159     -40306.305      79.774589      130970.54    
  20926000   311.18833     -40694.962      388.66159     -40306.3        79.912844      130970.54    
  20927000   311.18833     -40694.966      388.66159     -40306.304      79.83773       130970.54    
  20928000   311.18833     -40694.967      388.66159     -40306.306      79.860926      130970.54    
  20929000   311.18833     -40694.967      388.66159     -40306.305      79.850605      130970.54    
  20930000   311.18833     -40694.967      388.66159     -40306.306      79.802644      130970.54    
  20931000   311.18833     -40694.968      388.66159     -40306.306      79.802762      130970.54    
  20932000   311.18833     -40694.968      388.66159     -40306.306      79.742005      130970.54    
  20933000   311.18833     -40694.959      388.66159     -40306.298      79.929225      130970.54    
  20934000   311.18833     -40694.966      388.66159     -40306.305      79.795997      130970.54    
  20935000   311.18833     -40694.968      388.66159     -40306.307      79.851978      130970.54    
  20936000   311.18833     -40694.967      388.66159     -40306.305      79.883613      130970.54    
  20937000   311.18833     -40694.968      388.66159     -40306.307      79.807378      130970.54    
  20938000   311.18833     -40694.966      388.66159     -40306.304      79.805055      130970.54    
  20939000   311.18833     -40694.964      388.66159     -40306.302      79.919937      130970.54    
  20940000   311.18833     -40694.969      388.66159     -40306.307      79.813017      130970.54    
  20941000   311.18833     -40694.967      388.66159     -40306.306      79.823772      130970.54    
  20942000   311.18833     -40694.97       388.66159     -40306.308      79.825964      130970.54    
  20943000   311.18833     -40694.968      388.66159     -40306.306      79.789662      130970.54    
  20944000   311.18833     -40694.964      388.66159     -40306.303      79.901698      130970.54    
  20945000   311.18833     -40694.969      388.66159     -40306.307      79.788409      130970.54    
  20946000   311.18833     -40694.969      388.66159     -40306.307      79.803314      130970.54    
  20947000   311.18833     -40694.969      388.66159     -40306.307      79.803692      130970.54    
  20948000   311.18833     -40694.969      388.66159     -40306.307      79.782171      130970.54    
  20949000   311.18833     -40694.966      388.66159     -40306.304      79.768713      130970.54    
  20950000   311.18833     -40694.968      388.66159     -40306.306      79.836899      130970.54    
  20951000   311.18833     -40694.966      388.66159     -40306.305      79.87311       130970.54    
  20952000   311.18833     -40694.964      388.66159     -40306.302      79.885336      130970.54    
  20953000   311.18833     -40694.967      388.66159     -40306.305      79.856817      130970.54    
  20954000   311.18833     -40694.964      388.66159     -40306.302      79.872144      130970.54    
  20955000   311.18833     -40694.966      388.66159     -40306.304      79.815777      130970.54    
  20956000   311.18833     -40694.969      388.66159     -40306.307      79.755871      130970.54    
  20957000   311.18833     -40694.965      388.66159     -40306.303      79.894547      130970.54    
  20958000   311.18833     -40694.969      388.66159     -40306.307      79.799386      130970.54    
  20959000   311.18833     -40694.967      388.66159     -40306.305      79.852628      130970.54    
  20960000   311.18833     -40694.968      388.66159     -40306.306      79.844891      130970.54    
  20961000   311.18833     -40694.968      388.66159     -40306.307      79.81824       130970.54    
  20962000   311.18833     -40694.966      388.66159     -40306.304      79.792085      130970.54    
  20963000   311.18833     -40694.968      388.66159     -40306.307      79.786465      130970.54    
  20964000   311.18833     -40694.969      388.66159     -40306.307      79.827865      130970.54    
  20965000   311.18833     -40694.962      388.66159     -40306.3        79.917825      130970.54    
  20966000   311.18833     -40694.964      388.66159     -40306.302      79.873478      130970.54    
  20967000   311.18833     -40694.967      388.66159     -40306.306      79.783208      130970.54    
  20968000   311.18833     -40694.965      388.66159     -40306.303      79.892476      130970.54    
  20969000   311.18833     -40694.966      388.66159     -40306.304      79.836708      130970.54    
  20970000   311.18833     -40694.966      388.66159     -40306.304      79.872327      130970.54    
  20971000   311.18833     -40694.97       388.66159     -40306.308      79.787337      130970.54    
  20972000   311.18833     -40694.967      388.66159     -40306.306      79.791443      130970.54    
  20973000   311.18833     -40694.964      388.66159     -40306.302      79.864234      130970.54    
  20974000   311.18833     -40694.969      388.66159     -40306.308      79.826025      130970.54    
  20975000   311.18833     -40694.969      388.66159     -40306.307      79.851962      130970.54    
  20976000   311.18833     -40694.969      388.66159     -40306.307      79.794221      130970.54    
  20977000   311.18833     -40694.967      388.66159     -40306.305      79.737419      130970.54    
  20978000   311.18833     -40694.962      388.66159     -40306.301      79.916002      130970.54    
  20979000   311.18833     -40694.967      388.66159     -40306.306      79.847462      130970.54    
  20980000   311.18833     -40694.968      388.66159     -40306.307      79.827744      130970.54    
  20981000   311.18833     -40694.961      388.66159     -40306.3        79.943518      130970.54    
  20982000   311.18833     -40694.964      388.66159     -40306.303      79.874945      130970.54    
  20983000   311.18833     -40694.968      388.66159     -40306.306      79.809459      130970.54    
  20984000   311.18833     -40694.963      388.66159     -40306.302      79.902076      130970.54    
  20985000   311.18833     -40694.965      388.66159     -40306.304      79.877514      130970.54    
  20986000   311.18833     -40694.968      388.66159     -40306.307      79.782536      130970.54    
  20987000   311.18833     -40694.97       388.66159     -40306.308      79.765022      130970.54    
  20988000   311.18833     -40694.965      388.66159     -40306.304      79.906743      130970.54    
  20989000   311.18833     -40694.966      388.66159     -40306.304      79.896823      130970.54    
  20990000   311.18833     -40694.964      388.66159     -40306.302      79.851381      130970.54    
  20991000   311.18833     -40694.969      388.66159     -40306.308      79.838928      130970.54    
  20992000   311.18833     -40694.966      388.66159     -40306.304      79.77702       130970.54    
  20993000   311.18833     -40694.967      388.66159     -40306.305      79.78302       130970.54    
  20994000   311.18833     -40694.963      388.66159     -40306.301      79.846539      130970.54    
  20995000   311.18833     -40694.963      388.66159     -40306.301      79.873534      130970.54    
  20996000   311.18833     -40694.966      388.66159     -40306.305      79.845374      130970.54    
  20997000   311.18833     -40694.966      388.66159     -40306.304      79.789951      130970.54    
  20998000   311.18833     -40694.965      388.66159     -40306.304      79.851806      130970.54    
  20999000   311.18833     -40694.964      388.66159     -40306.303      79.910327      130970.54    
  21000000   311.18833     -40694.968      388.66159     -40306.306      79.840205      130970.54    
  21001000   311.18833     -40694.967      388.66159     -40306.305      79.793536      130970.54    
  21002000   311.18833     -40694.964      388.66159     -40306.302      79.876599      130970.54    
  21003000   311.18833     -40694.964      388.66159     -40306.303      79.818921      130970.54    
  21004000   311.18833     -40694.967      388.66159     -40306.306      79.847639      130970.54    
  21005000   311.18833     -40694.966      388.66159     -40306.304      79.684269      130970.54    
  21006000   311.18833     -40694.966      388.66159     -40306.304      79.891424      130970.54    
  21007000   311.18833     -40694.969      388.66159     -40306.308      79.845685      130970.54    
  21008000   311.18833     -40694.967      388.66159     -40306.305      79.823524      130970.54    
  21009000   311.18833     -40694.965      388.66159     -40306.304      79.766305      130970.54    
  21010000   311.18833     -40694.966      388.66159     -40306.304      79.863368      130970.54    
  21011000   311.18833     -40694.968      388.66159     -40306.306      79.746466      130970.54    
  21012000   311.18833     -40694.968      388.66159     -40306.307      79.841673      130970.54    
  21013000   311.18833     -40694.968      388.66159     -40306.306      79.806573      130970.54    
  21014000   311.18833     -40694.966      388.66159     -40306.305      79.833047      130970.54    
  21015000   311.18833     -40694.966      388.66159     -40306.304      79.891153      130970.54    
  21016000   311.18833     -40694.968      388.66159     -40306.306      79.824581      130970.54    
  21017000   311.18833     -40694.965      388.66159     -40306.304      79.901568      130970.54    
  21018000   311.18833     -40694.969      388.66159     -40306.308      79.81184       130970.54    
  21019000   311.18833     -40694.964      388.66159     -40306.303      79.850697      130970.54    
  21020000   311.18833     -40694.964      388.66159     -40306.303      79.865025      130970.54    
  21021000   311.18833     -40694.966      388.66159     -40306.304      79.862563      130970.54    
  21022000   311.18833     -40694.964      388.66159     -40306.302      79.921858      130970.54    
  21023000   311.18833     -40694.969      388.66159     -40306.307      79.826466      130970.54    
  21024000   311.18833     -40694.964      388.66159     -40306.303      79.815743      130970.54    
  21025000   311.18833     -40694.966      388.66159     -40306.305      79.827362      130970.54    
  21026000   311.18833     -40694.965      388.66159     -40306.303      79.911289      130970.54    
  21027000   311.18833     -40694.963      388.66159     -40306.301      79.909627      130970.54    
  21028000   311.18833     -40694.964      388.66159     -40306.302      79.886853      130970.54    
  21029000   311.18833     -40694.97       388.66159     -40306.308      79.764627      130970.54    
  21030000   311.18833     -40694.965      388.66159     -40306.303      79.796391      130970.54    
  21031000   311.18833     -40694.967      388.66159     -40306.305      79.884809      130970.54    
  21032000   311.18833     -40694.965      388.66159     -40306.303      79.813313      130970.54    
  21033000   311.18833     -40694.965      388.66159     -40306.304      79.900464      130970.54    
  21034000   311.18833     -40694.969      388.66159     -40306.307      79.857166      130970.54    
  21035000   311.18833     -40694.969      388.66159     -40306.308      79.798384      130970.54    
  21036000   311.18833     -40694.966      388.66159     -40306.304      79.868213      130970.54    
  21037000   311.18833     -40694.967      388.66159     -40306.305      79.845964      130970.54    
  21038000   311.18833     -40694.969      388.66159     -40306.307      79.832508      130970.54    
  21039000   311.18833     -40694.967      388.66159     -40306.305      79.831884      130970.54    
  21040000   311.18833     -40694.969      388.66159     -40306.307      79.829726      130970.54    
  21041000   311.18833     -40694.966      388.66159     -40306.304      79.875341      130970.54    
  21042000   311.18833     -40694.966      388.66159     -40306.304      79.866938      130970.54    
  21043000   311.18833     -40694.968      388.66159     -40306.306      79.869368      130970.54    
  21044000   311.18833     -40694.967      388.66159     -40306.306      79.846595      130970.54    
  21045000   311.18833     -40694.969      388.66159     -40306.307      79.850486      130970.54    
  21046000   311.18833     -40694.965      388.66159     -40306.304      79.84123       130970.54    
  21047000   311.18833     -40694.968      388.66159     -40306.306      79.82041       130970.54    
  21048000   311.18833     -40694.967      388.66159     -40306.306      79.818975      130970.54    
  21049000   311.18833     -40694.967      388.66159     -40306.305      79.85145       130970.54    
  21050000   311.18833     -40694.964      388.66159     -40306.303      79.853395      130970.54    
  21051000   311.18833     -40694.966      388.66159     -40306.304      79.809724      130970.54    
  21052000   311.18833     -40694.962      388.66159     -40306.301      79.86589       130970.54    
  21053000   311.18833     -40694.966      388.66159     -40306.305      79.831388      130970.54    
  21054000   311.18833     -40694.968      388.66159     -40306.306      79.845684      130970.54    
  21055000   311.18833     -40694.966      388.66159     -40306.304      79.90621       130970.54    
  21056000   311.18833     -40694.964      388.66159     -40306.302      79.909685      130970.54    
  21057000   311.18833     -40694.967      388.66159     -40306.305      79.855883      130970.54    
  21058000   311.18833     -40694.968      388.66159     -40306.307      79.877217      130970.54    
  21059000   311.18833     -40694.967      388.66159     -40306.306      79.828254      130970.54    
  21060000   311.18833     -40694.968      388.66159     -40306.306      79.792838      130970.54    
  21061000   311.18833     -40694.967      388.66159     -40306.306      79.792117      130970.54    
  21062000   311.18833     -40694.962      388.66159     -40306.301      79.838269      130970.54    
  21063000   311.18833     -40694.969      388.66159     -40306.307      79.78407       130970.54    
  21064000   311.18833     -40694.963      388.66159     -40306.302      79.83921       130970.54    
  21065000   311.18833     -40694.966      388.66159     -40306.305      79.833711      130970.54    
  21066000   311.18833     -40694.969      388.66159     -40306.307      79.843394      130970.54    
  21067000   311.18833     -40694.969      388.66159     -40306.307      79.745067      130970.54    
  21068000   311.18833     -40694.966      388.66159     -40306.304      79.829554      130970.54    
  21069000   311.18833     -40694.968      388.66159     -40306.307      79.828144      130970.54    
  21070000   311.18833     -40694.968      388.66159     -40306.306      79.85545       130970.54    
  21071000   311.18833     -40694.966      388.66159     -40306.305      79.831034      130970.54    
  21072000   311.18833     -40694.964      388.66159     -40306.303      79.89258       130970.54    
  21073000   311.18833     -40694.965      388.66159     -40306.303      79.874168      130970.54    
  21074000   311.18833     -40694.967      388.66159     -40306.305      79.872829      130970.54    
  21075000   311.18833     -40694.969      388.66159     -40306.307      79.797487      130970.54    
  21076000   311.18833     -40694.968      388.66159     -40306.307      79.812152      130970.54    
  21077000   311.18833     -40694.967      388.66159     -40306.305      79.845299      130970.54    
  21078000   311.18833     -40694.965      388.66159     -40306.303      79.843717      130970.54    
  21079000   311.18833     -40694.967      388.66159     -40306.305      79.75372       130970.54    
  21080000   311.18833     -40694.966      388.66159     -40306.305      79.822126      130970.54    
  21081000   311.18833     -40694.965      388.66159     -40306.303      79.807587      130970.54    
  21082000   311.18833     -40694.964      388.66159     -40306.303      79.912168      130970.54    
  21083000   311.18833     -40694.965      388.66159     -40306.303      79.914521      130970.54    
  21084000   311.18833     -40694.966      388.66159     -40306.304      79.840331      130970.54    
  21085000   311.18833     -40694.966      388.66159     -40306.304      79.800189      130970.54    
  21086000   311.18833     -40694.965      388.66159     -40306.303      79.809012      130970.54    
  21087000   311.18833     -40694.961      388.66159     -40306.3        79.932953      130970.54    
  21088000   311.18833     -40694.968      388.66159     -40306.306      79.78145       130970.54    
  21089000   311.18833     -40694.967      388.66159     -40306.305      79.750324      130970.54    
  21090000   311.18833     -40694.967      388.66159     -40306.306      79.79829       130970.54    
  21091000   311.18833     -40694.963      388.66159     -40306.301      79.849282      130970.54    
  21092000   311.18833     -40694.968      388.66159     -40306.307      79.837493      130970.54    
  21093000   311.18833     -40694.962      388.66159     -40306.301      79.910559      130970.54    
  21094000   311.18833     -40694.97       388.66159     -40306.308      79.815618      130970.54    
  21095000   311.18833     -40694.967      388.66159     -40306.306      79.859424      130970.54    
  21096000   311.18833     -40694.965      388.66159     -40306.303      79.79264       130970.54    
  21097000   311.18833     -40694.965      388.66159     -40306.304      79.890169      130970.54    
  21098000   311.18833     -40694.968      388.66159     -40306.306      79.804298      130970.54    
  21099000   311.18833     -40694.956      388.66159     -40306.294      79.898012      130970.54    
  21100000   311.18833     -40694.968      388.66159     -40306.307      79.873592      130970.54    
  21101000   311.18833     -40694.967      388.66159     -40306.306      79.859592      130970.54    
  21102000   311.18833     -40694.968      388.66159     -40306.307      79.873751      130970.54    
  21103000   311.18833     -40694.969      388.66159     -40306.307      79.82048       130970.54    
  21104000   311.18833     -40694.968      388.66159     -40306.307      79.870164      130970.54    
  21105000   311.18833     -40694.967      388.66159     -40306.305      79.768318      130970.54    
  21106000   311.18833     -40694.968      388.66159     -40306.307      79.830862      130970.54    
  21107000   311.18833     -40694.97       388.66159     -40306.308      79.787522      130970.54    
  21108000   311.18833     -40694.969      388.66159     -40306.308      79.775141      130970.54    
  21109000   311.18833     -40694.962      388.66159     -40306.3        79.960125      130970.54    
  21110000   311.18833     -40694.968      388.66159     -40306.307      79.807366      130970.54    
  21111000   311.18833     -40694.968      388.66159     -40306.306      79.783192      130970.54    
  21112000   311.18833     -40694.964      388.66159     -40306.303      79.826089      130970.54    
  21113000   311.18833     -40694.966      388.66159     -40306.304      79.860917      130970.54    
  21114000   311.18833     -40694.968      388.66159     -40306.307      79.811235      130970.54    
  21115000   311.18833     -40694.966      388.66159     -40306.305      79.849703      130970.54    
  21116000   311.18833     -40694.968      388.66159     -40306.307      79.816015      130970.54    
  21117000   311.18833     -40694.967      388.66159     -40306.306      79.847169      130970.54    
  21118000   311.18833     -40694.967      388.66159     -40306.305      79.81719       130970.54    
  21119000   311.18833     -40694.965      388.66159     -40306.304      79.869905      130970.54    
  21120000   311.18833     -40694.967      388.66159     -40306.305      79.895811      130970.54    
  21121000   311.18833     -40694.965      388.66159     -40306.304      79.76809       130970.54    
  21122000   311.18833     -40694.963      388.66159     -40306.302      79.783695      130970.54    
  21123000   311.18833     -40694.967      388.66159     -40306.305      79.831529      130970.54    
  21124000   311.18833     -40694.967      388.66159     -40306.305      79.831079      130970.54    
  21125000   311.18833     -40694.963      388.66159     -40306.302      79.932044      130970.54    
  21126000   311.18833     -40694.967      388.66159     -40306.305      79.80922       130970.54    
  21127000   311.18833     -40694.965      388.66159     -40306.303      79.900818      130970.54    
  21128000   311.18833     -40694.967      388.66159     -40306.306      79.871664      130970.54    
  21129000   311.18833     -40694.968      388.66159     -40306.306      79.821839      130970.54    
  21130000   311.18833     -40694.969      388.66159     -40306.307      79.804957      130970.54    
  21131000   311.18833     -40694.97       388.66159     -40306.308      79.789344      130970.54    
  21132000   311.18833     -40694.965      388.66159     -40306.303      79.776312      130970.54    
  21133000   311.18833     -40694.966      388.66159     -40306.305      79.814677      130970.54    
  21134000   311.18833     -40694.969      388.66159     -40306.308      79.826377      130970.54    
  21135000   311.18833     -40694.963      388.66159     -40306.301      79.919929      130970.54    
  21136000   311.18833     -40694.967      388.66159     -40306.305      79.835361      130970.54    
  21137000   311.18833     -40694.965      388.66159     -40306.304      79.790574      130970.54    
  21138000   311.18833     -40694.97       388.66159     -40306.308      79.779441      130970.54    
  21139000   311.18833     -40694.965      388.66159     -40306.303      79.830405      130970.54    
  21140000   311.18833     -40694.967      388.66159     -40306.306      79.858525      130970.54    
  21141000   311.18833     -40694.968      388.66159     -40306.306      79.809546      130970.54    
  21142000   311.18833     -40694.962      388.66159     -40306.3        79.903528      130970.54    
  21143000   311.18833     -40694.968      388.66159     -40306.306      79.781477      130970.54    
  21144000   311.18833     -40694.967      388.66159     -40306.305      79.806772      130970.54    
  21145000   311.18833     -40694.966      388.66159     -40306.304      79.868813      130970.54    
  21146000   311.18833     -40694.969      388.66159     -40306.308      79.829942      130970.54    
  21147000   311.18833     -40694.961      388.66159     -40306.299      79.873515      130970.54    
  21148000   311.18833     -40694.967      388.66159     -40306.305      79.879011      130970.54    
  21149000   311.18833     -40694.968      388.66159     -40306.307      79.79026       130970.54    
  21150000   311.18833     -40694.969      388.66159     -40306.308      79.825849      130970.54    
  21151000   311.18833     -40694.967      388.66159     -40306.305      79.764953      130970.54    
  21152000   311.18833     -40694.964      388.66159     -40306.302      79.903305      130970.54    
  21153000   311.18833     -40694.966      388.66159     -40306.304      79.843052      130970.54    
  21154000   311.18833     -40694.961      388.66159     -40306.3        79.942435      130970.54    
  21155000   311.18833     -40694.965      388.66159     -40306.304      79.887294      130970.54    
  21156000   311.18833     -40694.967      388.66159     -40306.305      79.811521      130970.54    
  21157000   311.18833     -40694.967      388.66159     -40306.305      79.808145      130970.54    
  21158000   311.18833     -40694.969      388.66159     -40306.308      79.791304      130970.54    
  21159000   311.18833     -40694.969      388.66159     -40306.308      79.737644      130970.54    
  21160000   311.18833     -40694.966      388.66159     -40306.305      79.878107      130970.54    
  21161000   311.18833     -40694.968      388.66159     -40306.306      79.851572      130970.54    
  21162000   311.18833     -40694.967      388.66159     -40306.305      79.819079      130970.54    
  21163000   311.18833     -40694.967      388.66159     -40306.306      79.826422      130970.54    
  21164000   311.18833     -40694.967      388.66159     -40306.306      79.868575      130970.54    
  21165000   311.18833     -40694.967      388.66159     -40306.305      79.889692      130970.54    
  21166000   311.18833     -40694.966      388.66159     -40306.304      79.86583       130970.54    
  21167000   311.18833     -40694.968      388.66159     -40306.306      79.824191      130970.54    
  21168000   311.18833     -40694.966      388.66159     -40306.304      79.84311       130970.54    
  21169000   311.18833     -40694.963      388.66159     -40306.302      79.902524      130970.54    
  21170000   311.18833     -40694.966      388.66159     -40306.304      79.797896      130970.54    
  21171000   311.18833     -40694.967      388.66159     -40306.305      79.872572      130970.54    
  21172000   311.18833     -40694.967      388.66159     -40306.306      79.890164      130970.54    
  21173000   311.18833     -40694.969      388.66159     -40306.307      79.775403      130970.54    
  21174000   311.18833     -40694.969      388.66159     -40306.307      79.810568      130970.54    
  21175000   311.18833     -40694.966      388.66159     -40306.305      79.803821      130970.54    
  21176000   311.18833     -40694.968      388.66159     -40306.307      79.789657      130970.54    
  21177000   311.18833     -40694.966      388.66159     -40306.304      79.869434      130970.54    
  21178000   311.18833     -40694.963      388.66159     -40306.301      79.932037      130970.54    
  21179000   311.18833     -40694.965      388.66159     -40306.304      79.849001      130970.54    
  21180000   311.18833     -40694.964      388.66159     -40306.302      79.853621      130970.54    
  21181000   311.18833     -40694.966      388.66159     -40306.304      79.8429        130970.54    
  21182000   311.18833     -40694.969      388.66159     -40306.308      79.774371      130970.54    
  21183000   311.18833     -40694.966      388.66159     -40306.304      79.800834      130970.54    
  21184000   311.18833     -40694.969      388.66159     -40306.308      79.754261      130970.54    
  21185000   311.18833     -40694.964      388.66159     -40306.303      79.870911      130970.54    
  21186000   311.18833     -40694.968      388.66159     -40306.306      79.857508      130970.54    
  21187000   311.18833     -40694.965      388.66159     -40306.303      79.836237      130970.54    
  21188000   311.18833     -40694.966      388.66159     -40306.305      79.862751      130970.54    
  21189000   311.18833     -40694.961      388.66159     -40306.299      79.804966      130970.54    
  21190000   311.18833     -40694.964      388.66159     -40306.302      79.883185      130970.54    
  21191000   311.18833     -40694.959      388.66159     -40306.297      79.958816      130970.54    
  21192000   311.18833     -40694.965      388.66159     -40306.304      79.770727      130970.54    
  21193000   311.18833     -40694.969      388.66159     -40306.307      79.788452      130970.54    
  21194000   311.18833     -40694.966      388.66159     -40306.304      79.770434      130970.54    
  21195000   311.18833     -40694.967      388.66159     -40306.306      79.813449      130970.54    
  21196000   311.18833     -40694.961      388.66159     -40306.3        79.783248      130970.54    
  21197000   311.18833     -40694.967      388.66159     -40306.305      79.883233      130970.54    
  21198000   311.18833     -40694.966      388.66159     -40306.304      79.897632      130970.54    
  21199000   311.18833     -40694.968      388.66159     -40306.307      79.810669      130970.54    
  21200000   311.18833     -40694.968      388.66159     -40306.306      79.834877      130970.54    
  21201000   311.18833     -40694.966      388.66159     -40306.304      79.847466      130970.54    
  21202000   311.18833     -40694.965      388.66159     -40306.304      79.85742       130970.54    
  21203000   311.18833     -40694.966      388.66159     -40306.304      79.829718      130970.54    
  21204000   311.18833     -40694.967      388.66159     -40306.306      79.792671      130970.54    
  21205000   311.18833     -40694.966      388.66159     -40306.305      79.7524        130970.54    
  21206000   311.18833     -40694.966      388.66159     -40306.304      79.810266      130970.54    
  21207000   311.18833     -40694.969      388.66159     -40306.308      79.792295      130970.54    
  21208000   311.18833     -40694.966      388.66159     -40306.304      79.830241      130970.54    
  21209000   311.18833     -40694.965      388.66159     -40306.304      79.893317      130970.54    
  21210000   311.18833     -40694.963      388.66159     -40306.301      79.901031      130970.54    
  21211000   311.18833     -40694.966      388.66159     -40306.304      79.841463      130970.54    
  21212000   311.18833     -40694.967      388.66159     -40306.306      79.773202      130970.54    
  21213000   311.18833     -40694.968      388.66159     -40306.306      79.811689      130970.54    
  21214000   311.18833     -40694.966      388.66159     -40306.304      79.844175      130970.54    
  21215000   311.18833     -40694.968      388.66159     -40306.306      79.844105      130970.54    
  21216000   311.18833     -40694.965      388.66159     -40306.304      79.726833      130970.54    
  21217000   311.18833     -40694.968      388.66159     -40306.306      79.840913      130970.54    
  21218000   311.18833     -40694.968      388.66159     -40306.306      79.723651      130970.54    
  21219000   311.18833     -40694.962      388.66159     -40306.301      79.927319      130970.54    
  21220000   311.18833     -40694.967      388.66159     -40306.305      79.781919      130970.54    
  21221000   311.18833     -40694.965      388.66159     -40306.303      79.898296      130970.54    
  21222000   311.18833     -40694.967      388.66159     -40306.305      79.818967      130970.54    
  21223000   311.18833     -40694.967      388.66159     -40306.305      79.831844      130970.54    
  21224000   311.18833     -40694.969      388.66159     -40306.307      79.796625      130970.54    
  21225000   311.18833     -40694.97       388.66159     -40306.308      79.778037      130970.54    
  21226000   311.18833     -40694.968      388.66159     -40306.306      79.842375      130970.54    
  21227000   311.18833     -40694.97       388.66159     -40306.308      79.837251      130970.54    
  21228000   311.18833     -40694.966      388.66159     -40306.304      79.846847      130970.54    
  21229000   311.18833     -40694.967      388.66159     -40306.306      79.812078      130970.54    
  21230000   311.18833     -40694.966      388.66159     -40306.304      79.790215      130970.54    
  21231000   311.18833     -40694.968      388.66159     -40306.307      79.848662      130970.54    
  21232000   311.18833     -40694.965      388.66159     -40306.304      79.905672      130970.54    
  21233000   311.18833     -40694.964      388.66159     -40306.303      79.830429      130970.54    
  21234000   311.18833     -40694.968      388.66159     -40306.307      79.844155      130970.54    
  21235000   311.18833     -40694.962      388.66159     -40306.301      79.907169      130970.54    
  21236000   311.18833     -40694.963      388.66159     -40306.301      79.841648      130970.54    
  21237000   311.18833     -40694.966      388.66159     -40306.304      79.849027      130970.54    
  21238000   311.18833     -40694.967      388.66159     -40306.306      79.766502      130970.54    
  21239000   311.18833     -40694.967      388.66159     -40306.305      79.849199      130970.54    
  21240000   311.18833     -40694.966      388.66159     -40306.304      79.887003      130970.54    
  21241000   311.18833     -40694.969      388.66159     -40306.307      79.778576      130970.54    
  21242000   311.18833     -40694.969      388.66159     -40306.307      79.790464      130970.54    
  21243000   311.18833     -40694.958      388.66159     -40306.296      79.897916      130970.54    
  21244000   311.18833     -40694.967      388.66159     -40306.305      79.754385      130970.54    
  21245000   311.18833     -40694.97       388.66159     -40306.308      79.831995      130970.54    
  21246000   311.18833     -40694.966      388.66159     -40306.305      79.866938      130970.54    
  21247000   311.18833     -40694.964      388.66159     -40306.302      79.920338      130970.54    
  21248000   311.18833     -40694.968      388.66159     -40306.307      79.829624      130970.54    
  21249000   311.18833     -40694.964      388.66159     -40306.302      79.770748      130970.54    
  21250000   311.18833     -40694.967      388.66159     -40306.305      79.794705      130970.54    
  21251000   311.18833     -40694.967      388.66159     -40306.305      79.74956       130970.54    
  21252000   311.18833     -40694.968      388.66159     -40306.307      79.838575      130970.54    
  21253000   311.18833     -40694.967      388.66159     -40306.305      79.878465      130970.54    
  21254000   311.18833     -40694.969      388.66159     -40306.308      79.840513      130970.54    
  21255000   311.18833     -40694.969      388.66159     -40306.307      79.741409      130970.54    
  21256000   311.18833     -40694.967      388.66159     -40306.305      79.788602      130970.54    
  21257000   311.18833     -40694.967      388.66159     -40306.306      79.807253      130970.54    
  21258000   311.18833     -40694.968      388.66159     -40306.306      79.816923      130970.54    
  21259000   311.18833     -40694.965      388.66159     -40306.303      79.902445      130970.54    
  21260000   311.18833     -40694.967      388.66159     -40306.305      79.815872      130970.54    
  21261000   311.18833     -40694.97       388.66159     -40306.309      79.823068      130970.54    
  21262000   311.18833     -40694.968      388.66159     -40306.306      79.86055       130970.54    
  21263000   311.18833     -40694.962      388.66159     -40306.3        79.870111      130970.54    
  21264000   311.18833     -40694.969      388.66159     -40306.308      79.837508      130970.54    
  21265000   311.18833     -40694.969      388.66159     -40306.307      79.778366      130970.54    
  21266000   311.18833     -40694.967      388.66159     -40306.305      79.879262      130970.54    
  21267000   311.18833     -40694.966      388.66159     -40306.304      79.894756      130970.54    
  21268000   311.18833     -40694.967      388.66159     -40306.305      79.86574       130970.54    
  21269000   311.18833     -40694.969      388.66159     -40306.308      79.820617      130970.54    
  21270000   311.18833     -40694.964      388.66159     -40306.302      79.834702      130970.54    
  21271000   311.18833     -40694.965      388.66159     -40306.303      79.846013      130970.54    
  21272000   311.18833     -40694.965      388.66159     -40306.304      79.745404      130970.54    
  21273000   311.18833     -40694.969      388.66159     -40306.307      79.799498      130970.54    
  21274000   311.18833     -40694.967      388.66159     -40306.306      79.856866      130970.54    
  21275000   311.18833     -40694.965      388.66159     -40306.304      79.854958      130970.54    
  21276000   311.18833     -40694.967      388.66159     -40306.305      79.756908      130970.54    
  21277000   311.18833     -40694.969      388.66159     -40306.308      79.836928      130970.54    
  21278000   311.18833     -40694.967      388.66159     -40306.305      79.822896      130970.54    
  21279000   311.18833     -40694.968      388.66159     -40306.306      79.779393      130970.54    
  21280000   311.18833     -40694.968      388.66159     -40306.306      79.764229      130970.54    
  21281000   311.18833     -40694.969      388.66159     -40306.307      79.824291      130970.54    
  21282000   311.18833     -40694.969      388.66159     -40306.308      79.810005      130970.54    
  21283000   311.18833     -40694.962      388.66159     -40306.301      79.89506       130970.54    
  21284000   311.18833     -40694.964      388.66159     -40306.302      79.953993      130970.54    
  21285000   311.18833     -40694.962      388.66159     -40306.301      79.871873      130970.54    
  21286000   311.18833     -40694.97       388.66159     -40306.308      79.808863      130970.54    
  21287000   311.18833     -40694.968      388.66159     -40306.307      79.760844      130970.54    
  21288000   311.18833     -40694.968      388.66159     -40306.307      79.747507      130970.54    
  21289000   311.18833     -40694.966      388.66159     -40306.304      79.802383      130970.54    
  21290000   311.18833     -40694.961      388.66159     -40306.299      79.940239      130970.54    
  21291000   311.18833     -40694.969      388.66159     -40306.307      79.78694       130970.54    
  21292000   311.18833     -40694.967      388.66159     -40306.305      79.836937      130970.54    
  21293000   311.18833     -40694.965      388.66159     -40306.304      79.877391      130970.54    
  21294000   311.18833     -40694.965      388.66159     -40306.304      79.822681      130970.54    
  21295000   311.18833     -40694.969      388.66159     -40306.307      79.836381      130970.54    
  21296000   311.18833     -40694.966      388.66159     -40306.305      79.880693      130970.54    
  21297000   311.18833     -40694.969      388.66159     -40306.307      79.849427      130970.54    
  21298000   311.18833     -40694.967      388.66159     -40306.306      79.828024      130970.54    
  21299000   311.18833     -40694.97       388.66159     -40306.308      79.826895      130970.54    
  21300000   311.18833     -40694.967      388.66159     -40306.306      79.840083      130970.54    
  21301000   311.18833     -40694.966      388.66159     -40306.304      79.907447      130970.54    
  21302000   311.18833     -40694.966      388.66159     -40306.305      79.83758       130970.54    
  21303000   311.18833     -40694.968      388.66159     -40306.307      79.789436      130970.54    
  21304000   311.18833     -40694.968      388.66159     -40306.306      79.796497      130970.54    
  21305000   311.18833     -40694.965      388.66159     -40306.303      79.85396       130970.54    
  21306000   311.18833     -40694.968      388.66159     -40306.306      79.812337      130970.54    
  21307000   311.18833     -40694.968      388.66159     -40306.306      79.777608      130970.54    
  21308000   311.18833     -40694.967      388.66159     -40306.305      79.799381      130970.54    
  21309000   311.18833     -40694.97       388.66159     -40306.309      79.771619      130970.54    
  21310000   311.18833     -40694.964      388.66159     -40306.302      79.876836      130970.54    
  21311000   311.18833     -40694.966      388.66159     -40306.305      79.847592      130970.54    
  21312000   311.18833     -40694.967      388.66159     -40306.306      79.875487      130970.54    
  21313000   311.18833     -40694.964      388.66159     -40306.302      79.929218      130970.54    
  21314000   311.18833     -40694.967      388.66159     -40306.305      79.810081      130970.54    
  21315000   311.18833     -40694.966      388.66159     -40306.305      79.808217      130970.54    
  21316000   311.18833     -40694.966      388.66159     -40306.305      79.853721      130970.54    
  21317000   311.18833     -40694.969      388.66159     -40306.307      79.807305      130970.54    
  21318000   311.18833     -40694.968      388.66159     -40306.307      79.823504      130970.54    
  21319000   311.18833     -40694.966      388.66159     -40306.304      79.727392      130970.54    
  21320000   311.18833     -40694.968      388.66159     -40306.306      79.816225      130970.54    
  21321000   311.18833     -40694.966      388.66159     -40306.305      79.87109       130970.54    
  21322000   311.18833     -40694.965      388.66159     -40306.304      79.842447      130970.54    
  21323000   311.18833     -40694.966      388.66159     -40306.305      79.859177      130970.54    
  21324000   311.18833     -40694.969      388.66159     -40306.308      79.802673      130970.54    
  21325000   311.18833     -40694.961      388.66159     -40306.3        79.88582       130970.54    
  21326000   311.18833     -40694.969      388.66159     -40306.307      79.82337       130970.54    
  21327000   311.18833     -40694.964      388.66159     -40306.302      79.831428      130970.54    
  21328000   311.18833     -40694.966      388.66159     -40306.304      79.909049      130970.54    
  21329000   311.18833     -40694.966      388.66159     -40306.304      79.828081      130970.54    
  21330000   311.18833     -40694.969      388.66159     -40306.307      79.81474       130970.54    
  21331000   311.18833     -40694.97       388.66159     -40306.308      79.776876      130970.54    
  21332000   311.18833     -40694.963      388.66159     -40306.302      79.829019      130970.54    
  21333000   311.18833     -40694.964      388.66159     -40306.303      79.794052      130970.54    
  21334000   311.18833     -40694.967      388.66159     -40306.306      79.85612       130970.54    
  21335000   311.18833     -40694.966      388.66159     -40306.304      79.884675      130970.54    
  21336000   311.18833     -40694.967      388.66159     -40306.305      79.900628      130970.54    
  21337000   311.18833     -40694.97       388.66159     -40306.308      79.843538      130970.54    
  21338000   311.18833     -40694.968      388.66159     -40306.306      79.858227      130970.54    
  21339000   311.18833     -40694.966      388.66159     -40306.305      79.844906      130970.54    
  21340000   311.18833     -40694.966      388.66159     -40306.304      79.844607      130970.54    
  21341000   311.18833     -40694.966      388.66159     -40306.304      79.736062      130970.54    
  21342000   311.18833     -40694.962      388.66159     -40306.3        79.888077      130970.54    
  21343000   311.18833     -40694.966      388.66159     -40306.304      79.876398      130970.54    
  21344000   311.18833     -40694.967      388.66159     -40306.305      79.822785      130970.54    
  21345000   311.18833     -40694.967      388.66159     -40306.305      79.816398      130970.54    
  21346000   311.18833     -40694.969      388.66159     -40306.307      79.781223      130970.54    
  21347000   311.18833     -40694.967      388.66159     -40306.305      79.835084      130970.54    
  21348000   311.18833     -40694.964      388.66159     -40306.303      79.810071      130970.54    
  21349000   311.18833     -40694.969      388.66159     -40306.307      79.79586       130970.54    
  21350000   311.18833     -40694.967      388.66159     -40306.306      79.809185      130970.54    
  21351000   311.18833     -40694.968      388.66159     -40306.307      79.806597      130970.54    
  21352000   311.18833     -40694.965      388.66159     -40306.304      79.8788        130970.54    
  21353000   311.18833     -40694.966      388.66159     -40306.305      79.807715      130970.54    
  21354000   311.18833     -40694.964      388.66159     -40306.302      79.746407      130970.54    
  21355000   311.18833     -40694.969      388.66159     -40306.307      79.808903      130970.54    
  21356000   311.18833     -40694.969      388.66159     -40306.307      79.869942      130970.54    
  21357000   311.18833     -40694.97       388.66159     -40306.308      79.821966      130970.54    
  21358000   311.18833     -40694.968      388.66159     -40306.306      79.852029      130970.54    
  21359000   311.18833     -40694.968      388.66159     -40306.307      79.816917      130970.54    
  21360000   311.18833     -40694.967      388.66159     -40306.305      79.829376      130970.54    
  21361000   311.18833     -40694.968      388.66159     -40306.307      79.815258      130970.54    
  21362000   311.18833     -40694.967      388.66159     -40306.305      79.793887      130970.54    
  21363000   311.18833     -40694.967      388.66159     -40306.305      79.724596      130970.54    
  21364000   311.18833     -40694.967      388.66159     -40306.305      79.825967      130970.54    
  21365000   311.18833     -40694.966      388.66159     -40306.305      79.827998      130970.54    
  21366000   311.18833     -40694.968      388.66159     -40306.306      79.746766      130970.54    
  21367000   311.18833     -40694.965      388.66159     -40306.304      79.740629      130970.54    
  21368000   311.18833     -40694.968      388.66159     -40306.307      79.766912      130970.54    
  21369000   311.18833     -40694.966      388.66159     -40306.305      79.781961      130970.54    
  21370000   311.18833     -40694.963      388.66159     -40306.302      79.897199      130970.54    
  21371000   311.18833     -40694.968      388.66159     -40306.306      79.880614      130970.54    
  21372000   311.18833     -40694.969      388.66159     -40306.307      79.816927      130970.54    
  21373000   311.18833     -40694.968      388.66159     -40306.307      79.872412      130970.54    
  21374000   311.18833     -40694.966      388.66159     -40306.304      79.787926      130970.54    
  21375000   311.18833     -40694.966      388.66159     -40306.305      79.875315      130970.54    
  21376000   311.18833     -40694.964      388.66159     -40306.302      79.873741      130970.54    
  21377000   311.18833     -40694.965      388.66159     -40306.303      79.845346      130970.54    
  21378000   311.18833     -40694.965      388.66159     -40306.303      79.904416      130970.54    
  21379000   311.18833     -40694.965      388.66159     -40306.303      79.866125      130970.54    
  21380000   311.18833     -40694.964      388.66159     -40306.303      79.880542      130970.54    
  21381000   311.18833     -40694.968      388.66159     -40306.307      79.789766      130970.54    
  21382000   311.18833     -40694.966      388.66159     -40306.304      79.799984      130970.54    
  21383000   311.18833     -40694.966      388.66159     -40306.304      79.858783      130970.54    
  21384000   311.18833     -40694.961      388.66159     -40306.299      79.966542      130970.54    
  21385000   311.18833     -40694.966      388.66159     -40306.305      79.856219      130970.54    
  21386000   311.18833     -40694.966      388.66159     -40306.305      79.858262      130970.54    
  21387000   311.18833     -40694.967      388.66159     -40306.305      79.837054      130970.54    
  21388000   311.18833     -40694.966      388.66159     -40306.305      79.84152       130970.54    
  21389000   311.18833     -40694.964      388.66159     -40306.302      79.872247      130970.54    
  21390000   311.18833     -40694.969      388.66159     -40306.307      79.742963      130970.54    
  21391000   311.18833     -40694.968      388.66159     -40306.307      79.780511      130970.54    
  21392000   311.18833     -40694.966      388.66159     -40306.304      79.837632      130970.54    
  21393000   311.18833     -40694.969      388.66159     -40306.307      79.690144      130970.54    
  21394000   311.18833     -40694.968      388.66159     -40306.307      79.823287      130970.54    
  21395000   311.18833     -40694.962      388.66159     -40306.3        79.861161      130970.54    
  21396000   311.18833     -40694.961      388.66159     -40306.299      79.949613      130970.54    
  21397000   311.18833     -40694.966      388.66159     -40306.305      79.851704      130970.54    
  21398000   311.18833     -40694.969      388.66159     -40306.307      79.853872      130970.54    
  21399000   311.18833     -40694.968      388.66159     -40306.307      79.782881      130970.54    
  21400000   311.18833     -40694.968      388.66159     -40306.306      79.846338      130970.54    
  21401000   311.18833     -40694.966      388.66159     -40306.304      79.861984      130970.54    
  21402000   311.18833     -40694.965      388.66159     -40306.304      79.726533      130970.54    
  21403000   311.18833     -40694.968      388.66159     -40306.306      79.842023      130970.54    
  21404000   311.18833     -40694.967      388.66159     -40306.306      79.79985       130970.54    
  21405000   311.18833     -40694.965      388.66159     -40306.304      79.87173       130970.54    
  21406000   311.18833     -40694.965      388.66159     -40306.303      79.85719       130970.54    
  21407000   311.18833     -40694.969      388.66159     -40306.307      79.846051      130970.54    
  21408000   311.18833     -40694.966      388.66159     -40306.304      79.798303      130970.54    
  21409000   311.18833     -40694.967      388.66159     -40306.305      79.827471      130970.54    
  21410000   311.18833     -40694.969      388.66159     -40306.307      79.817801      130970.54    
  21411000   311.18833     -40694.967      388.66159     -40306.306      79.830768      130970.54    
  21412000   311.18833     -40694.968      388.66159     -40306.306      79.802629      130970.54    
  21413000   311.18833     -40694.967      388.66159     -40306.306      79.844538      130970.54    
  21414000   311.18833     -40694.964      388.66159     -40306.302      79.906254      130970.54    
  21415000   311.18833     -40694.969      388.66159     -40306.307      79.761705      130970.54    
  21416000   311.18833     -40694.969      388.66159     -40306.307      79.845368      130970.54    
  21417000   311.18833     -40694.967      388.66159     -40306.305      79.869015      130970.54    
  21418000   311.18833     -40694.968      388.66159     -40306.306      79.832292      130970.54    
  21419000   311.18833     -40694.967      388.66159     -40306.306      79.866236      130970.54    
  21420000   311.18833     -40694.968      388.66159     -40306.306      79.800647      130970.54    
  21421000   311.18833     -40694.963      388.66159     -40306.302      79.793615      130970.54    
  21422000   311.18833     -40694.969      388.66159     -40306.307      79.813638      130970.54    
  21423000   311.18833     -40694.966      388.66159     -40306.304      79.883327      130970.54    
  21424000   311.18833     -40694.965      388.66159     -40306.304      79.875487      130970.54    
  21425000   311.18833     -40694.965      388.66159     -40306.304      79.836005      130970.54    
  21426000   311.18833     -40694.97       388.66159     -40306.308      79.829935      130970.54    
  21427000   311.18833     -40694.968      388.66159     -40306.307      79.732542      130970.54    
  21428000   311.18833     -40694.969      388.66159     -40306.307      79.717078      130970.54    
  21429000   311.18833     -40694.967      388.66159     -40306.306      79.857341      130970.54    
  21430000   311.18833     -40694.967      388.66159     -40306.305      79.863308      130970.54    
  21431000   311.18833     -40694.969      388.66159     -40306.307      79.778088      130970.54    
  21432000   311.18833     -40694.97       388.66159     -40306.308      79.775569      130970.54    
  21433000   311.18833     -40694.962      388.66159     -40306.3        79.941209      130970.54    
  21434000   311.18833     -40694.967      388.66159     -40306.305      79.854582      130970.54    
  21435000   311.18833     -40694.961      388.66159     -40306.3        79.925957      130970.54    
  21436000   311.18833     -40694.965      388.66159     -40306.304      79.730953      130970.54    
  21437000   311.18833     -40694.967      388.66159     -40306.306      79.835072      130970.54    
  21438000   311.18833     -40694.969      388.66159     -40306.308      79.82875       130970.54    
  21439000   311.18833     -40694.968      388.66159     -40306.306      79.792139      130970.54    
  21440000   311.18833     -40694.967      388.66159     -40306.306      79.840812      130970.54    
  21441000   311.18833     -40694.969      388.66159     -40306.307      79.811911      130970.54    
  21442000   311.18833     -40694.965      388.66159     -40306.303      79.860209      130970.54    
  21443000   311.18833     -40694.963      388.66159     -40306.302      79.926515      130970.54    
  21444000   311.18833     -40694.966      388.66159     -40306.305      79.828105      130970.54    
  21445000   311.18833     -40694.965      388.66159     -40306.303      79.898414      130970.54    
  21446000   311.18833     -40694.963      388.66159     -40306.301      79.885937      130970.54    
  21447000   311.18833     -40694.969      388.66159     -40306.307      79.745506      130970.54    
  21448000   311.18833     -40694.968      388.66159     -40306.306      79.836788      130970.54    
  21449000   311.18833     -40694.967      388.66159     -40306.306      79.759017      130970.54    
  21450000   311.18833     -40694.968      388.66159     -40306.307      79.820109      130970.54    
  21451000   311.18833     -40694.967      388.66159     -40306.305      79.884484      130970.54    
  21452000   311.18833     -40694.967      388.66159     -40306.305      79.717652      130970.54    
  21453000   311.18833     -40694.965      388.66159     -40306.303      79.837756      130970.54    
  21454000   311.18833     -40694.967      388.66159     -40306.305      79.777679      130970.54    
  21455000   311.18833     -40694.967      388.66159     -40306.305      79.824276      130970.54    
  21456000   311.18833     -40694.969      388.66159     -40306.308      79.823153      130970.54    
  21457000   311.18833     -40694.969      388.66159     -40306.308      79.847071      130970.54    
  21458000   311.18833     -40694.97       388.66159     -40306.308      79.778572      130970.54    
  21459000   311.18833     -40694.966      388.66159     -40306.305      79.769386      130970.54    
  21460000   311.18833     -40694.964      388.66159     -40306.302      79.900416      130970.54    
  21461000   311.18833     -40694.969      388.66159     -40306.307      79.710737      130970.54    
  21462000   311.18833     -40694.968      388.66159     -40306.306      79.872303      130970.54    
  21463000   311.18833     -40694.967      388.66159     -40306.305      79.805776      130970.54    
  21464000   311.18833     -40694.965      388.66159     -40306.303      79.849574      130970.54    
  21465000   311.18833     -40694.968      388.66159     -40306.307      79.859777      130970.54    
  21466000   311.18833     -40694.967      388.66159     -40306.306      79.739188      130970.54    
  21467000   311.18833     -40694.969      388.66159     -40306.308      79.771822      130970.54    
  21468000   311.18833     -40694.963      388.66159     -40306.302      79.903533      130970.54    
  21469000   311.18833     -40694.966      388.66159     -40306.305      79.863257      130970.54    
  21470000   311.18833     -40694.968      388.66159     -40306.306      79.85892       130970.54    
  21471000   311.18833     -40694.969      388.66159     -40306.307      79.799467      130970.54    
  21472000   311.18833     -40694.963      388.66159     -40306.301      79.938967      130970.54    
  21473000   311.18833     -40694.966      388.66159     -40306.304      79.896209      130970.54    
  21474000   311.18833     -40694.965      388.66159     -40306.303      79.827621      130970.54    
  21475000   311.18833     -40694.968      388.66159     -40306.307      79.829373      130970.54    
  21476000   311.18833     -40694.964      388.66159     -40306.302      79.868824      130970.54    
  21477000   311.18833     -40694.968      388.66159     -40306.307      79.835456      130970.54    
  21478000   311.18833     -40694.968      388.66159     -40306.306      79.818365      130970.54    
  21479000   311.18833     -40694.968      388.66159     -40306.307      79.823508      130970.54    
  21480000   311.18833     -40694.968      388.66159     -40306.307      79.796993      130970.54    
  21481000   311.18833     -40694.968      388.66159     -40306.307      79.830565      130970.54    
  21482000   311.18833     -40694.965      388.66159     -40306.303      79.91145       130970.54    
  21483000   311.18833     -40694.969      388.66159     -40306.308      79.78187       130970.54    
  21484000   311.18833     -40694.967      388.66159     -40306.305      79.821047      130970.54    
  21485000   311.18833     -40694.962      388.66159     -40306.3        79.956362      130970.54    
  21486000   311.18833     -40694.968      388.66159     -40306.306      79.82338       130970.54    
  21487000   311.18833     -40694.965      388.66159     -40306.304      79.818662      130970.54    
  21488000   311.18833     -40694.968      388.66159     -40306.307      79.846316      130970.54    
  21489000   311.18833     -40694.969      388.66159     -40306.308      79.831954      130970.54    
  21490000   311.18833     -40694.968      388.66159     -40306.306      79.821146      130970.54    
  21491000   311.18833     -40694.966      388.66159     -40306.304      79.870677      130970.54    
  21492000   311.18833     -40694.967      388.66159     -40306.306      79.859177      130970.54    
  21493000   311.18833     -40694.969      388.66159     -40306.307      79.791603      130970.54    
  21494000   311.18833     -40694.968      388.66159     -40306.307      79.809817      130970.54    
  21495000   311.18833     -40694.965      388.66159     -40306.303      79.840369      130970.54    
  21496000   311.18833     -40694.965      388.66159     -40306.304      79.738695      130970.54    
  21497000   311.18833     -40694.966      388.66159     -40306.305      79.839315      130970.54    
  21498000   311.18833     -40694.968      388.66159     -40306.306      79.806923      130970.54    
  21499000   311.18833     -40694.968      388.66159     -40306.306      79.848934      130970.54    
  21500000   311.18833     -40694.963      388.66159     -40306.301      79.765406      130970.54    
  21501000   311.18833     -40694.966      388.66159     -40306.304      79.85982       130970.54    
  21502000   311.18833     -40694.964      388.66159     -40306.303      79.901464      130970.54    
  21503000   311.18833     -40694.964      388.66159     -40306.302      79.850521      130970.54    
  21504000   311.18833     -40694.969      388.66159     -40306.307      79.845982      130970.54    
  21505000   311.18833     -40694.962      388.66159     -40306.3        79.883201      130970.54    
  21506000   311.18833     -40694.967      388.66159     -40306.305      79.852096      130970.54    
  21507000   311.18833     -40694.967      388.66159     -40306.306      79.828406      130970.54    
  21508000   311.18833     -40694.954      388.66159     -40306.293      79.982397      130970.54    
  21509000   311.18833     -40694.966      388.66159     -40306.304      79.809994      130970.54    
  21510000   311.18833     -40694.965      388.66159     -40306.303      79.814713      130970.54    
  21511000   311.18833     -40694.965      388.66159     -40306.304      79.815337      130970.54    
  21512000   311.18833     -40694.968      388.66159     -40306.306      79.814651      130970.54    
  21513000   311.18833     -40694.962      388.66159     -40306.301      79.880043      130970.54    
  21514000   311.18833     -40694.968      388.66159     -40306.307      79.824181      130970.54    
  21515000   311.18833     -40694.966      388.66159     -40306.305      79.712953      130970.54    
  21516000   311.18833     -40694.966      388.66159     -40306.305      79.902771      130970.54    
  21517000   311.18833     -40694.969      388.66159     -40306.308      79.789224      130970.54    
  21518000   311.18833     -40694.967      388.66159     -40306.305      79.812607      130970.54    
  21519000   311.18833     -40694.965      388.66159     -40306.303      79.877289      130970.54    
  21520000   311.18833     -40694.969      388.66159     -40306.307      79.819839      130970.54    
  21521000   311.18833     -40694.966      388.66159     -40306.305      79.900203      130970.54    
  21522000   311.18833     -40694.968      388.66159     -40306.306      79.77098       130970.54    
  21523000   311.18833     -40694.965      388.66159     -40306.303      79.892102      130970.54    
  21524000   311.18833     -40694.969      388.66159     -40306.307      79.835491      130970.54    
  21525000   311.18833     -40694.967      388.66159     -40306.305      79.780308      130970.54    
  21526000   311.18833     -40694.967      388.66159     -40306.305      79.852097      130970.54    
  21527000   311.18833     -40694.965      388.66159     -40306.303      79.9021        130970.54    
  21528000   311.18833     -40694.968      388.66159     -40306.306      79.850507      130970.54    
  21529000   311.18833     -40694.969      388.66159     -40306.307      79.839532      130970.54    
  21530000   311.18833     -40694.967      388.66159     -40306.306      79.826595      130970.54    
  21531000   311.18833     -40694.967      388.66159     -40306.306      79.759951      130970.54    
  21532000   311.18833     -40694.967      388.66159     -40306.306      79.82056       130970.54    
  21533000   311.18833     -40694.967      388.66159     -40306.306      79.71869       130970.54    
  21534000   311.18833     -40694.966      388.66159     -40306.304      79.729413      130970.54    
  21535000   311.18833     -40694.967      388.66159     -40306.306      79.805589      130970.54    
  21536000   311.18833     -40694.967      388.66159     -40306.305      79.853441      130970.54    
  21537000   311.18833     -40694.968      388.66159     -40306.307      79.849519      130970.54    
  21538000   311.18833     -40694.965      388.66159     -40306.303      79.914803      130970.54    
  21539000   311.18833     -40694.969      388.66159     -40306.308      79.820187      130970.54    
  21540000   311.18833     -40694.967      388.66159     -40306.305      79.833054      130970.54    
  21541000   311.18833     -40694.966      388.66159     -40306.305      79.883161      130970.54    
  21542000   311.18833     -40694.963      388.66159     -40306.301      79.898522      130970.54    
  21543000   311.18833     -40694.967      388.66159     -40306.306      79.835755      130970.54    
  21544000   311.18833     -40694.964      388.66159     -40306.302      79.89623       130970.54    
  21545000   311.18833     -40694.969      388.66159     -40306.307      79.81417       130970.54    
  21546000   311.18833     -40694.967      388.66159     -40306.305      79.829395      130970.54    
  21547000   311.18833     -40694.963      388.66159     -40306.301      79.877531      130970.54    
  21548000   311.18833     -40694.965      388.66159     -40306.303      79.854212      130970.54    
  21549000   311.18833     -40694.969      388.66159     -40306.307      79.810608      130970.54    
  21550000   311.18833     -40694.965      388.66159     -40306.304      79.859683      130970.54    
  21551000   311.18833     -40694.967      388.66159     -40306.305      79.807513      130970.54    
  21552000   311.18833     -40694.97       388.66159     -40306.308      79.770153      130970.54    
  21553000   311.18833     -40694.965      388.66159     -40306.303      79.908569      130970.54    
  21554000   311.18833     -40694.968      388.66159     -40306.306      79.806029      130970.54    
  21555000   311.18833     -40694.968      388.66159     -40306.306      79.831068      130970.54    
  21556000   311.18833     -40694.962      388.66159     -40306.3        79.918507      130970.54    
  21557000   311.18833     -40694.968      388.66159     -40306.306      79.832935      130970.54    
  21558000   311.18833     -40694.965      388.66159     -40306.303      79.804675      130970.54    
  21559000   311.18833     -40694.968      388.66159     -40306.307      79.802451      130970.54    
  21560000   311.18833     -40694.968      388.66159     -40306.306      79.771396      130970.54    
  21561000   311.18833     -40694.968      388.66159     -40306.306      79.870353      130970.54    
  21562000   311.18833     -40694.965      388.66159     -40306.304      79.820909      130970.54    
  21563000   311.18833     -40694.967      388.66159     -40306.306      79.795191      130970.54    
  21564000   311.18833     -40694.966      388.66159     -40306.304      79.863279      130970.54    
  21565000   311.18833     -40694.966      388.66159     -40306.305      79.874553      130970.54    
  21566000   311.18833     -40694.968      388.66159     -40306.306      79.757467      130970.54    
  21567000   311.18833     -40694.964      388.66159     -40306.302      79.872661      130970.54    
  21568000   311.18833     -40694.965      388.66159     -40306.303      79.928485      130970.54    
  21569000   311.18833     -40694.965      388.66159     -40306.304      79.871305      130970.54    
  21570000   311.18833     -40694.969      388.66159     -40306.308      79.732015      130970.54    
  21571000   311.18833     -40694.969      388.66159     -40306.307      79.837448      130970.54    
  21572000   311.18833     -40694.968      388.66159     -40306.306      79.856084      130970.54    
  21573000   311.18833     -40694.963      388.66159     -40306.301      79.836496      130970.54    
  21574000   311.18833     -40694.963      388.66159     -40306.302      79.922878      130970.54    
  21575000   311.18833     -40694.967      388.66159     -40306.305      79.808081      130970.54    
  21576000   311.18833     -40694.966      388.66159     -40306.305      79.826075      130970.54    
  21577000   311.18833     -40694.969      388.66159     -40306.307      79.759668      130970.54    
  21578000   311.18833     -40694.969      388.66159     -40306.307      79.856983      130970.54    
  21579000   311.18833     -40694.966      388.66159     -40306.305      79.701283      130970.54    
  21580000   311.18833     -40694.969      388.66159     -40306.307      79.73179       130970.54    
  21581000   311.18833     -40694.965      388.66159     -40306.304      79.830946      130970.54    
  21582000   311.18833     -40694.969      388.66159     -40306.308      79.769686      130970.54    
  21583000   311.18833     -40694.969      388.66159     -40306.307      79.819805      130970.54    
  21584000   311.18833     -40694.968      388.66159     -40306.306      79.774662      130970.54    
  21585000   311.18833     -40694.968      388.66159     -40306.306      79.868823      130970.54    
  21586000   311.18833     -40694.97       388.66159     -40306.308      79.83131       130970.54    
  21587000   311.18833     -40694.965      388.66159     -40306.303      79.868408      130970.54    
  21588000   311.18833     -40694.967      388.66159     -40306.306      79.840744      130970.54    
  21589000   311.18833     -40694.967      388.66159     -40306.306      79.841556      130970.54    
  21590000   311.18833     -40694.97       388.66159     -40306.308      79.77817       130970.54    
  21591000   311.18833     -40694.967      388.66159     -40306.306      79.761554      130970.54    
  21592000   311.18833     -40694.964      388.66159     -40306.303      79.849244      130970.54    
  21593000   311.18833     -40694.967      388.66159     -40306.306      79.863264      130970.54    
  21594000   311.18833     -40694.962      388.66159     -40306.3        79.838713      130970.54    
  21595000   311.18833     -40694.963      388.66159     -40306.302      79.817955      130970.54    
  21596000   311.18833     -40694.964      388.66159     -40306.303      79.860699      130970.54    
  21597000   311.18833     -40694.969      388.66159     -40306.307      79.829132      130970.54    
  21598000   311.18833     -40694.968      388.66159     -40306.307      79.832506      130970.54    
  21599000   311.18833     -40694.967      388.66159     -40306.306      79.811238      130970.54    
  21600000   311.18833     -40694.964      388.66159     -40306.302      79.794485      130970.54    
  21601000   311.18833     -40694.967      388.66159     -40306.305      79.822761      130970.54    
  21602000   311.18833     -40694.966      388.66159     -40306.304      79.840441      130970.54    
  21603000   311.18833     -40694.964      388.66159     -40306.302      79.900207      130970.54    
  21604000   311.18833     -40694.966      388.66159     -40306.305      79.797215      130970.54    
  21605000   311.18833     -40694.965      388.66159     -40306.304      79.839772      130970.54    
  21606000   311.18833     -40694.967      388.66159     -40306.305      79.876925      130970.54    
  21607000   311.18833     -40694.965      388.66159     -40306.304      79.859992      130970.54    
  21608000   311.18833     -40694.968      388.66159     -40306.306      79.875103      130970.54    
  21609000   311.18833     -40694.969      388.66159     -40306.307      79.717705      130970.54    
  21610000   311.18833     -40694.967      388.66159     -40306.305      79.854591      130970.54    
  21611000   311.18833     -40694.963      388.66159     -40306.301      79.838114      130970.54    
  21612000   311.18833     -40694.964      388.66159     -40306.303      79.89357       130970.54    
  21613000   311.18833     -40694.966      388.66159     -40306.304      79.887389      130970.54    
  21614000   311.18833     -40694.963      388.66159     -40306.301      79.890849      130970.54    
  21615000   311.18833     -40694.965      388.66159     -40306.304      79.81437       130970.54    
  21616000   311.18833     -40694.964      388.66159     -40306.302      79.818189      130970.54    
  21617000   311.18833     -40694.96       388.66159     -40306.299      79.895603      130970.54    
  21618000   311.18833     -40694.964      388.66159     -40306.302      79.724822      130970.54    
  21619000   311.18833     -40694.961      388.66159     -40306.3        79.793395      130970.54    
  21620000   311.18833     -40694.966      388.66159     -40306.304      79.792806      130970.54    
  21621000   311.18833     -40694.966      388.66159     -40306.304      79.843653      130970.54    
  21622000   311.18833     -40694.965      388.66159     -40306.304      79.89978       130970.54    
  21623000   311.18833     -40694.969      388.66159     -40306.308      79.781913      130970.54    
  21624000   311.18833     -40694.968      388.66159     -40306.307      79.800403      130970.54    
  21625000   311.18833     -40694.967      388.66159     -40306.306      79.813454      130970.54    
  21626000   311.18833     -40694.965      388.66159     -40306.303      79.845238      130970.54    
  21627000   311.18833     -40694.968      388.66159     -40306.307      79.821213      130970.54    
  21628000   311.18833     -40694.969      388.66159     -40306.307      79.737272      130970.54    
  21629000   311.18833     -40694.967      388.66159     -40306.306      79.761714      130970.54    
  21630000   311.18833     -40694.969      388.66159     -40306.307      79.81849       130970.54    
  21631000   311.18833     -40694.967      388.66159     -40306.305      79.819514      130970.54    
  21632000   311.18833     -40694.965      388.66159     -40306.304      79.792659      130970.54    
  21633000   311.18833     -40694.967      388.66159     -40306.306      79.789665      130970.54    
  21634000   311.18833     -40694.968      388.66159     -40306.307      79.806411      130970.54    
  21635000   311.18833     -40694.967      388.66159     -40306.306      79.840439      130970.54    
  21636000   311.18833     -40694.966      388.66159     -40306.305      79.758364      130970.54    
  21637000   311.18833     -40694.968      388.66159     -40306.307      79.854796      130970.54    
  21638000   311.18833     -40694.969      388.66159     -40306.307      79.810881      130970.54    
  21639000   311.18833     -40694.968      388.66159     -40306.307      79.834062      130970.54    
  21640000   311.18833     -40694.964      388.66159     -40306.302      79.834685      130970.54    
  21641000   311.18833     -40694.966      388.66159     -40306.304      79.795274      130970.54    
  21642000   311.18833     -40694.968      388.66159     -40306.307      79.811723      130970.54    
  21643000   311.18833     -40694.963      388.66159     -40306.302      79.942212      130970.54    
  21644000   311.18833     -40694.958      388.66159     -40306.296      79.911206      130970.54    
  21645000   311.18833     -40694.968      388.66159     -40306.306      79.74111       130970.54    
  21646000   311.18833     -40694.968      388.66159     -40306.307      79.771085      130970.54    
  21647000   311.18833     -40694.966      388.66159     -40306.304      79.867202      130970.54    
  21648000   311.18833     -40694.967      388.66159     -40306.305      79.85965       130970.54    
  21649000   311.18833     -40694.968      388.66159     -40306.307      79.737587      130970.54    
  21650000   311.18833     -40694.968      388.66159     -40306.306      79.801394      130970.54    
  21651000   311.18833     -40694.962      388.66159     -40306.3        79.941754      130970.54    
  21652000   311.18833     -40694.965      388.66159     -40306.304      79.892464      130970.54    
  21653000   311.18833     -40694.961      388.66159     -40306.299      79.806422      130970.54    
  21654000   311.18833     -40694.969      388.66159     -40306.308      79.842903      130970.54    
  21655000   311.18833     -40694.966      388.66159     -40306.305      79.789793      130970.54    
  21656000   311.18833     -40694.966      388.66159     -40306.304      79.842314      130970.54    
  21657000   311.18833     -40694.969      388.66159     -40306.308      79.828595      130970.54    
  21658000   311.18833     -40694.957      388.66159     -40306.295      79.917065      130970.54    
  21659000   311.18833     -40694.968      388.66159     -40306.307      79.768242      130970.54    
  21660000   311.18833     -40694.968      388.66159     -40306.306      79.831473      130970.54    
  21661000   311.18833     -40694.97       388.66159     -40306.308      79.812305      130970.54    
  21662000   311.18833     -40694.965      388.66159     -40306.304      79.881901      130970.54    
  21663000   311.18833     -40694.965      388.66159     -40306.303      79.839218      130970.54    
  21664000   311.18833     -40694.968      388.66159     -40306.306      79.848574      130970.54    
  21665000   311.18833     -40694.965      388.66159     -40306.303      79.903956      130970.54    
  21666000   311.18833     -40694.963      388.66159     -40306.302      79.855833      130970.54    
  21667000   311.18833     -40694.965      388.66159     -40306.303      79.781435      130970.54    
  21668000   311.18833     -40694.967      388.66159     -40306.305      79.861711      130970.54    
  21669000   311.18833     -40694.966      388.66159     -40306.304      79.837418      130970.54    
  21670000   311.18833     -40694.966      388.66159     -40306.305      79.846935      130970.54    
  21671000   311.18833     -40694.967      388.66159     -40306.305      79.728267      130970.54    
  21672000   311.18833     -40694.969      388.66159     -40306.307      79.788281      130970.54    
  21673000   311.18833     -40694.968      388.66159     -40306.307      79.851451      130970.54    
  21674000   311.18833     -40694.965      388.66159     -40306.304      79.850687      130970.54    
  21675000   311.18833     -40694.967      388.66159     -40306.306      79.709366      130970.54    
  21676000   311.18833     -40694.969      388.66159     -40306.307      79.80989       130970.54    
  21677000   311.18833     -40694.965      388.66159     -40306.303      79.883891      130970.54    
  21678000   311.18833     -40694.97       388.66159     -40306.308      79.781956      130970.54    
  21679000   311.18833     -40694.968      388.66159     -40306.307      79.79898       130970.54    
  21680000   311.18833     -40694.968      388.66159     -40306.306      79.794381      130970.54    
  21681000   311.18833     -40694.963      388.66159     -40306.302      79.933413      130970.54    
  21682000   311.18833     -40694.968      388.66159     -40306.306      79.784386      130970.54    
  21683000   311.18833     -40694.965      388.66159     -40306.303      79.887232      130970.54    
  21684000   311.18833     -40694.969      388.66159     -40306.307      79.715214      130970.54    
  21685000   311.18833     -40694.967      388.66159     -40306.306      79.85775       130970.54    
  21686000   311.18833     -40694.967      388.66159     -40306.306      79.808514      130970.54    
  21687000   311.18833     -40694.97       388.66159     -40306.308      79.764361      130970.54    
  21688000   311.18833     -40694.969      388.66159     -40306.307      79.839514      130970.54    
  21689000   311.18833     -40694.969      388.66159     -40306.308      79.855556      130970.54    
  21690000   311.18833     -40694.967      388.66159     -40306.306      79.754101      130970.54    
  21691000   311.18833     -40694.965      388.66159     -40306.304      79.854848      130970.54    
  21692000   311.18833     -40694.964      388.66159     -40306.302      79.833225      130970.54    
  21693000   311.18833     -40694.966      388.66159     -40306.304      79.864438      130970.54    
  21694000   311.18833     -40694.968      388.66159     -40306.306      79.828657      130970.54    
  21695000   311.18833     -40694.969      388.66159     -40306.307      79.825373      130970.54    
  21696000   311.18833     -40694.967      388.66159     -40306.305      79.843703      130970.54    
  21697000   311.18833     -40694.966      388.66159     -40306.304      79.877204      130970.54    
  21698000   311.18833     -40694.968      388.66159     -40306.307      79.815081      130970.54    
  21699000   311.18833     -40694.969      388.66159     -40306.307      79.825529      130970.54    
  21700000   311.18833     -40694.964      388.66159     -40306.303      79.84993       130970.54    
  21701000   311.18833     -40694.969      388.66159     -40306.307      79.767681      130970.54    
  21702000   311.18833     -40694.967      388.66159     -40306.305      79.881582      130970.54    
  21703000   311.18833     -40694.968      388.66159     -40306.307      79.793719      130970.54    
  21704000   311.18833     -40694.968      388.66159     -40306.307      79.843083      130970.54    
  21705000   311.18833     -40694.968      388.66159     -40306.307      79.7798        130970.54    
  21706000   311.18833     -40694.969      388.66159     -40306.308      79.795192      130970.54    
  21707000   311.18833     -40694.968      388.66159     -40306.306      79.76454       130970.54    
  21708000   311.18833     -40694.966      388.66159     -40306.304      79.834535      130970.54    
  21709000   311.18833     -40694.966      388.66159     -40306.305      79.811372      130970.54    
  21710000   311.18833     -40694.967      388.66159     -40306.305      79.854078      130970.54    
  21711000   311.18833     -40694.966      388.66159     -40306.304      79.785973      130970.54    
  21712000   311.18833     -40694.968      388.66159     -40306.306      79.819468      130970.54    
  21713000   311.18833     -40694.967      388.66159     -40306.305      79.853081      130970.54    
  21714000   311.18833     -40694.964      388.66159     -40306.303      79.858899      130970.54    
  21715000   311.18833     -40694.968      388.66159     -40306.307      79.849339      130970.54    
  21716000   311.18833     -40694.968      388.66159     -40306.306      79.811398      130970.54    
  21717000   311.18833     -40694.968      388.66159     -40306.306      79.800948      130970.54    
  21718000   311.18833     -40694.96       388.66159     -40306.298      79.84817       130970.54    
  21719000   311.18833     -40694.966      388.66159     -40306.304      79.8924        130970.54    
  21720000   311.18833     -40694.967      388.66159     -40306.306      79.871193      130970.54    
  21721000   311.18833     -40694.967      388.66159     -40306.306      79.778764      130970.54    
  21722000   311.18833     -40694.964      388.66159     -40306.303      79.817616      130970.54    
  21723000   311.18833     -40694.967      388.66159     -40306.305      79.859317      130970.54    
  21724000   311.18833     -40694.968      388.66159     -40306.306      79.765546      130970.54    
  21725000   311.18833     -40694.965      388.66159     -40306.303      79.85913       130970.54    
  21726000   311.18833     -40694.97       388.66159     -40306.309      79.744195      130970.54    
  21727000   311.18833     -40694.969      388.66159     -40306.308      79.797716      130970.54    
  21728000   311.18833     -40694.965      388.66159     -40306.303      79.897014      130970.54    
  21729000   311.18833     -40694.968      388.66159     -40306.306      79.812268      130970.54    
  21730000   311.18833     -40694.967      388.66159     -40306.305      79.850123      130970.54    
  21731000   311.18833     -40694.968      388.66159     -40306.306      79.82854       130970.54    
  21732000   311.18833     -40694.964      388.66159     -40306.303      79.891691      130970.54    
  21733000   311.18833     -40694.969      388.66159     -40306.308      79.825182      130970.54    
  21734000   311.18833     -40694.968      388.66159     -40306.306      79.737584      130970.54    
  21735000   311.18833     -40694.966      388.66159     -40306.304      79.846936      130970.54    
  21736000   311.18833     -40694.967      388.66159     -40306.305      79.845915      130970.54    
  21737000   311.18833     -40694.967      388.66159     -40306.306      79.826827      130970.54    
  21738000   311.18833     -40694.968      388.66159     -40306.306      79.836113      130970.54    
  21739000   311.18833     -40694.964      388.66159     -40306.302      79.892894      130970.54    
  21740000   311.18833     -40694.966      388.66159     -40306.305      79.767635      130970.54    
  21741000   311.18833     -40694.965      388.66159     -40306.304      79.733576      130970.54    
  21742000   311.18833     -40694.965      388.66159     -40306.303      79.790925      130970.54    
  21743000   311.18833     -40694.965      388.66159     -40306.304      79.7929        130970.54    
  21744000   311.18833     -40694.967      388.66159     -40306.305      79.805679      130970.54    
  21745000   311.18833     -40694.964      388.66159     -40306.303      79.863523      130970.54    
  21746000   311.18833     -40694.967      388.66159     -40306.305      79.84058       130970.54    
  21747000   311.18833     -40694.963      388.66159     -40306.301      79.879521      130970.54    
  21748000   311.18833     -40694.963      388.66159     -40306.301      79.834545      130970.54    
  21749000   311.18833     -40694.965      388.66159     -40306.303      79.839839      130970.54    
  21750000   311.18833     -40694.963      388.66159     -40306.302      79.826077      130970.54    
  21751000   311.18833     -40694.968      388.66159     -40306.306      79.800222      130970.54    
  21752000   311.18833     -40694.968      388.66159     -40306.307      79.823878      130970.54    
  21753000   311.18833     -40694.967      388.66159     -40306.305      79.759382      130970.54    
  21754000   311.18833     -40694.97       388.66159     -40306.308      79.797597      130970.54    
  21755000   311.18833     -40694.966      388.66159     -40306.304      79.830565      130970.54    
  21756000   311.18833     -40694.966      388.66159     -40306.304      79.872616      130970.54    
  21757000   311.18833     -40694.97       388.66159     -40306.308      79.703963      130970.54    
  21758000   311.18833     -40694.968      388.66159     -40306.307      79.7851        130970.54    
  21759000   311.18833     -40694.968      388.66159     -40306.307      79.813588      130970.54    
  21760000   311.18833     -40694.959      388.66159     -40306.297      79.841528      130970.54    
  21761000   311.18833     -40694.969      388.66159     -40306.307      79.841466      130970.54    
  21762000   311.18833     -40694.967      388.66159     -40306.305      79.868029      130970.54    
  21763000   311.18833     -40694.965      388.66159     -40306.303      79.826447      130970.54    
  21764000   311.18833     -40694.966      388.66159     -40306.304      79.793695      130970.54    
  21765000   311.18833     -40694.964      388.66159     -40306.303      79.856629      130970.54    
  21766000   311.18833     -40694.969      388.66159     -40306.307      79.751265      130970.54    
  21767000   311.18833     -40694.969      388.66159     -40306.308      79.801995      130970.54    
  21768000   311.18833     -40694.964      388.66159     -40306.302      79.852905      130970.54    
  21769000   311.18833     -40694.961      388.66159     -40306.299      79.870829      130970.54    
  21770000   311.18833     -40694.968      388.66159     -40306.307      79.820185      130970.54    
  21771000   311.18833     -40694.968      388.66159     -40306.307      79.842537      130970.54    
  21772000   311.18833     -40694.967      388.66159     -40306.305      79.889505      130970.54    
  21773000   311.18833     -40694.96       388.66159     -40306.298      79.875597      130970.54    
  21774000   311.18833     -40694.964      388.66159     -40306.302      79.905422      130970.54    
  21775000   311.18833     -40694.962      388.66159     -40306.3        79.963079      130970.54    
  21776000   311.18833     -40694.966      388.66159     -40306.304      79.810625      130970.54    
  21777000   311.18833     -40694.966      388.66159     -40306.305      79.879732      130970.54    
  21778000   311.18833     -40694.964      388.66159     -40306.303      79.747389      130970.54    
  21779000   311.18833     -40694.966      388.66159     -40306.304      79.598688      130970.54    
  21780000   311.18833     -40694.968      388.66159     -40306.306      79.797504      130970.54    
  21781000   311.18833     -40694.966      388.66159     -40306.305      79.741598      130970.54    
  21782000   311.18833     -40694.962      388.66159     -40306.3        79.964241      130970.54    
  21783000   311.18833     -40694.966      388.66159     -40306.305      79.784551      130970.54    
  21784000   311.18833     -40694.961      388.66159     -40306.299      79.969745      130970.54    
  21785000   311.18833     -40694.968      388.66159     -40306.306      79.784241      130970.54    
  21786000   311.18833     -40694.967      388.66159     -40306.305      79.758682      130970.54    
  21787000   311.18833     -40694.961      388.66159     -40306.299      79.952982      130970.54    
  21788000   311.18833     -40694.969      388.66159     -40306.307      79.788064      130970.54    
  21789000   311.18833     -40694.965      388.66159     -40306.303      79.92567       130970.54    
  21790000   311.18833     -40694.967      388.66159     -40306.305      79.832059      130970.54    
  21791000   311.18833     -40694.966      388.66159     -40306.304      79.811089      130970.54    
  21792000   311.18833     -40694.968      388.66159     -40306.307      79.82978       130970.54    
  21793000   311.18833     -40694.968      388.66159     -40306.306      79.836289      130970.54    
  21794000   311.18833     -40694.964      388.66159     -40306.302      79.860969      130970.54    
  21795000   311.18833     -40694.962      388.66159     -40306.3        79.916139      130970.54    
  21796000   311.18833     -40694.965      388.66159     -40306.303      79.793707      130970.54    
  21797000   311.18833     -40694.967      388.66159     -40306.305      79.807459      130970.54    
  21798000   311.18833     -40694.967      388.66159     -40306.305      79.855032      130970.54    
  21799000   311.18833     -40694.966      388.66159     -40306.304      79.85827       130970.54    
  21800000   311.18833     -40694.96       388.66159     -40306.298      79.891038      130970.54    
  21801000   311.18833     -40694.967      388.66159     -40306.305      79.823686      130970.54    
  21802000   311.18833     -40694.965      388.66159     -40306.303      79.826025      130970.54    
  21803000   311.18833     -40694.965      388.66159     -40306.303      79.896782      130970.54    
  21804000   311.18833     -40694.969      388.66159     -40306.308      79.814126      130970.54    
  21805000   311.18833     -40694.967      388.66159     -40306.305      79.797209      130970.54    
  21806000   311.18833     -40694.969      388.66159     -40306.308      79.853273      130970.54    
  21807000   311.18833     -40694.97       388.66159     -40306.308      79.834424      130970.54    
  21808000   311.18833     -40694.969      388.66159     -40306.307      79.80463       130970.54    
  21809000   311.18833     -40694.968      388.66159     -40306.306      79.854033      130970.54    
  21810000   311.18833     -40694.965      388.66159     -40306.304      79.837487      130970.54    
  21811000   311.18833     -40694.961      388.66159     -40306.299      79.788541      130970.54    
  21812000   311.18833     -40694.968      388.66159     -40306.307      79.815678      130970.54    
  21813000   311.18833     -40694.969      388.66159     -40306.307      79.795023      130970.54    
  21814000   311.18833     -40694.966      388.66159     -40306.305      79.814275      130970.54    
  21815000   311.18833     -40694.966      388.66159     -40306.305      79.847707      130970.54    
  21816000   311.18833     -40694.969      388.66159     -40306.307      79.871171      130970.54    
  21817000   311.18833     -40694.968      388.66159     -40306.307      79.811735      130970.54    
  21818000   311.18833     -40694.965      388.66159     -40306.303      79.904957      130970.54    
  21819000   311.18833     -40694.968      388.66159     -40306.306      79.817077      130970.54    
  21820000   311.18833     -40694.962      388.66159     -40306.3        79.898969      130970.54    
  21821000   311.18833     -40694.963      388.66159     -40306.301      79.804769      130970.54    
  21822000   311.18833     -40694.967      388.66159     -40306.306      79.837571      130970.54    
  21823000   311.18833     -40694.97       388.66159     -40306.308      79.79674       130970.54    
  21824000   311.18833     -40694.968      388.66159     -40306.306      79.855181      130970.54    
  21825000   311.18833     -40694.96       388.66159     -40306.298      79.851475      130970.54    
  21826000   311.18833     -40694.966      388.66159     -40306.305      79.781864      130970.54    
  21827000   311.18833     -40694.965      388.66159     -40306.303      79.86293       130970.54    
  21828000   311.18833     -40694.968      388.66159     -40306.307      79.814615      130970.54    
  21829000   311.18833     -40694.964      388.66159     -40306.302      79.846563      130970.54    
  21830000   311.18833     -40694.969      388.66159     -40306.308      79.848682      130970.54    
  21831000   311.18833     -40694.969      388.66159     -40306.308      79.767204      130970.54    
  21832000   311.18833     -40694.969      388.66159     -40306.307      79.745879      130970.54    
  21833000   311.18833     -40694.966      388.66159     -40306.304      79.869996      130970.54    
  21834000   311.18833     -40694.969      388.66159     -40306.308      79.77435       130970.54    
  21835000   311.18833     -40694.964      388.66159     -40306.302      79.870023      130970.54    
  21836000   311.18833     -40694.966      388.66159     -40306.304      79.866185      130970.54    
  21837000   311.18833     -40694.964      388.66159     -40306.303      79.883752      130970.54    
  21838000   311.18833     -40694.97       388.66159     -40306.308      79.781743      130970.54    
  21839000   311.18833     -40694.966      388.66159     -40306.304      79.835659      130970.54    
  21840000   311.18833     -40694.966      388.66159     -40306.305      79.880459      130970.54    
  21841000   311.18833     -40694.966      388.66159     -40306.305      79.867193      130970.54    
  21842000   311.18833     -40694.967      388.66159     -40306.306      79.754674      130970.54    
  21843000   311.18833     -40694.967      388.66159     -40306.306      79.783898      130970.54    
  21844000   311.18833     -40694.966      388.66159     -40306.305      79.800822      130970.54    
  21845000   311.18833     -40694.964      388.66159     -40306.303      79.841         130970.54    
  21846000   311.18833     -40694.967      388.66159     -40306.306      79.772161      130970.54    
  21847000   311.18833     -40694.967      388.66159     -40306.305      79.845916      130970.54    
  21848000   311.18833     -40694.966      388.66159     -40306.305      79.887013      130970.54    
  21849000   311.18833     -40694.969      388.66159     -40306.307      79.782922      130970.54    
  21850000   311.18833     -40694.967      388.66159     -40306.305      79.806776      130970.54    
  21851000   311.18833     -40694.963      388.66159     -40306.302      79.868888      130970.54    
  21852000   311.18833     -40694.969      388.66159     -40306.307      79.741735      130970.54    
  21853000   311.18833     -40694.967      388.66159     -40306.306      79.792027      130970.54    
  21854000   311.18833     -40694.966      388.66159     -40306.304      79.83105       130970.54    
  21855000   311.18833     -40694.969      388.66159     -40306.308      79.790199      130970.54    
  21856000   311.18833     -40694.969      388.66159     -40306.307      79.816775      130970.54    
  21857000   311.18833     -40694.965      388.66159     -40306.304      79.890112      130970.54    
  21858000   311.18833     -40694.96       388.66159     -40306.298      79.887578      130970.54    
  21859000   311.18833     -40694.967      388.66159     -40306.305      79.724877      130970.54    
  21860000   311.18833     -40694.969      388.66159     -40306.307      79.809562      130970.54    
  21861000   311.18833     -40694.97       388.66159     -40306.308      79.763286      130970.54    
  21862000   311.18833     -40694.969      388.66159     -40306.308      79.823844      130970.54    
  21863000   311.18833     -40694.969      388.66159     -40306.307      79.85589       130970.54    
  21864000   311.18833     -40694.966      388.66159     -40306.304      79.909428      130970.54    
  21865000   311.18833     -40694.969      388.66159     -40306.307      79.873891      130970.54    
  21866000   311.18833     -40694.962      388.66159     -40306.301      79.772868      130970.54    
  21867000   311.18833     -40694.966      388.66159     -40306.305      79.820019      130970.54    
  21868000   311.18833     -40694.965      388.66159     -40306.304      79.889821      130970.54    
  21869000   311.18833     -40694.965      388.66159     -40306.304      79.822998      130970.54    
  21870000   311.18833     -40694.968      388.66159     -40306.306      79.811763      130970.54    
  21871000   311.18833     -40694.966      388.66159     -40306.305      79.715161      130970.54    
  21872000   311.18833     -40694.968      388.66159     -40306.306      79.812794      130970.54    
  21873000   311.18833     -40694.968      388.66159     -40306.306      79.832502      130970.54    
  21874000   311.18833     -40694.966      388.66159     -40306.304      79.797213      130970.54    
  21875000   311.18833     -40694.966      388.66159     -40306.304      79.782567      130970.54    
  21876000   311.18833     -40694.969      388.66159     -40306.307      79.758889      130970.54    
  21877000   311.18833     -40694.967      388.66159     -40306.305      79.840161      130970.54    
  21878000   311.18833     -40694.969      388.66159     -40306.308      79.82321       130970.54    
  21879000   311.18833     -40694.964      388.66159     -40306.303      79.813433      130970.54    
  21880000   311.18833     -40694.97       388.66159     -40306.308      79.814769      130970.54    
  21881000   311.18833     -40694.966      388.66159     -40306.305      79.819803      130970.54    
  21882000   311.18833     -40694.965      388.66159     -40306.304      79.84225       130970.54    
  21883000   311.18833     -40694.966      388.66159     -40306.305      79.888354      130970.54    
  21884000   311.18833     -40694.967      388.66159     -40306.306      79.809051      130970.54    
  21885000   311.18833     -40694.964      388.66159     -40306.303      79.798072      130970.54    
  21886000   311.18833     -40694.963      388.66159     -40306.302      79.93512       130970.54    
  21887000   311.18833     -40694.969      388.66159     -40306.307      79.802584      130970.54    
  21888000   311.18833     -40694.969      388.66159     -40306.307      79.861954      130970.54    
  21889000   311.18833     -40694.97       388.66159     -40306.308      79.795115      130970.54    
  21890000   311.18833     -40694.962      388.66159     -40306.301      79.963709      130970.54    
  21891000   311.18833     -40694.963      388.66159     -40306.301      79.897601      130970.54    
  21892000   311.18833     -40694.966      388.66159     -40306.305      79.841742      130970.54    
  21893000   311.18833     -40694.967      388.66159     -40306.306      79.87282       130970.54    
  21894000   311.18833     -40694.969      388.66159     -40306.307      79.826538      130970.54    
  21895000   311.18833     -40694.957      388.66159     -40306.296      79.945968      130970.54    
  21896000   311.18833     -40694.968      388.66159     -40306.306      79.773038      130970.54    
  21897000   311.18833     -40694.967      388.66159     -40306.305      79.90252       130970.54    
  21898000   311.18833     -40694.964      388.66159     -40306.303      79.75827       130970.54    
  21899000   311.18833     -40694.966      388.66159     -40306.304      79.831488      130970.54    
  21900000   311.18833     -40694.965      388.66159     -40306.304      79.856334      130970.54    
  21901000   311.18833     -40694.965      388.66159     -40306.303      79.900004      130970.54    
  21902000   311.18833     -40694.968      388.66159     -40306.306      79.788668      130970.54    
  21903000   311.18833     -40694.966      388.66159     -40306.304      79.896757      130970.54    
  21904000   311.18833     -40694.968      388.66159     -40306.306      79.852579      130970.54    
  21905000   311.18833     -40694.965      388.66159     -40306.304      79.873373      130970.54    
  21906000   311.18833     -40694.967      388.66159     -40306.306      79.778706      130970.54    
  21907000   311.18833     -40694.963      388.66159     -40306.302      79.854283      130970.54    
  21908000   311.18833     -40694.968      388.66159     -40306.307      79.845482      130970.54    
  21909000   311.18833     -40694.969      388.66159     -40306.307      79.793264      130970.54    
  21910000   311.18833     -40694.964      388.66159     -40306.303      79.911175      130970.54    
  21911000   311.18833     -40694.966      388.66159     -40306.304      79.86521       130970.54    
  21912000   311.18833     -40694.965      388.66159     -40306.304      79.862499      130970.54    
  21913000   311.18833     -40694.967      388.66159     -40306.306      79.841022      130970.54    
  21914000   311.18833     -40694.969      388.66159     -40306.307      79.728776      130970.54    
  21915000   311.18833     -40694.969      388.66159     -40306.307      79.810899      130970.54    
  21916000   311.18833     -40694.969      388.66159     -40306.307      79.732976      130970.54    
  21917000   311.18833     -40694.965      388.66159     -40306.304      79.83438       130970.54    
  21918000   311.18833     -40694.965      388.66159     -40306.303      79.883854      130970.54    
  21919000   311.18833     -40694.966      388.66159     -40306.304      79.821363      130970.54    
  21920000   311.18833     -40694.965      388.66159     -40306.303      79.789637      130970.54    
  21921000   311.18833     -40694.96       388.66159     -40306.299      79.993665      130970.54    
  21922000   311.18833     -40694.967      388.66159     -40306.305      79.858011      130970.54    
  21923000   311.18833     -40694.969      388.66159     -40306.307      79.785112      130970.54    
  21924000   311.18833     -40694.967      388.66159     -40306.305      79.704128      130970.54    
  21925000   311.18833     -40694.967      388.66159     -40306.306      79.855739      130970.54    
  21926000   311.18833     -40694.968      388.66159     -40306.306      79.800462      130970.54    
  21927000   311.18833     -40694.969      388.66159     -40306.307      79.813033      130970.54    
  21928000   311.18833     -40694.967      388.66159     -40306.306      79.829826      130970.54    
  21929000   311.18833     -40694.966      388.66159     -40306.305      79.785308      130970.54    
  21930000   311.18833     -40694.965      388.66159     -40306.303      79.82451       130970.54    
  21931000   311.18833     -40694.967      388.66159     -40306.306      79.835345      130970.54    
  21932000   311.18833     -40694.963      388.66159     -40306.301      79.867256      130970.54    
  21933000   311.18833     -40694.967      388.66159     -40306.306      79.812709      130970.54    
  21934000   311.18833     -40694.968      388.66159     -40306.307      79.823357      130970.54    
  21935000   311.18833     -40694.969      388.66159     -40306.307      79.841621      130970.54    
  21936000   311.18833     -40694.969      388.66159     -40306.308      79.844743      130970.54    
  21937000   311.18833     -40694.967      388.66159     -40306.305      79.760185      130970.54    
  21938000   311.18833     -40694.968      388.66159     -40306.306      79.776088      130970.54    
  21939000   311.18833     -40694.966      388.66159     -40306.305      79.809039      130970.54    
  21940000   311.18833     -40694.964      388.66159     -40306.303      79.849391      130970.54    
  21941000   311.18833     -40694.968      388.66159     -40306.306      79.854395      130970.54    
  21942000   311.18833     -40694.968      388.66159     -40306.306      79.760575      130970.54    
  21943000   311.18833     -40694.964      388.66159     -40306.303      79.89685       130970.54    
  21944000   311.18833     -40694.966      388.66159     -40306.305      79.807997      130970.54    
  21945000   311.18833     -40694.967      388.66159     -40306.305      79.80395       130970.54    
  21946000   311.18833     -40694.967      388.66159     -40306.305      79.791328      130970.54    
  21947000   311.18833     -40694.965      388.66159     -40306.304      79.781867      130970.54    
  21948000   311.18833     -40694.962      388.66159     -40306.301      79.95654       130970.54    
  21949000   311.18833     -40694.966      388.66159     -40306.304      79.831927      130970.54    
  21950000   311.18833     -40694.969      388.66159     -40306.307      79.740421      130970.54    
  21951000   311.18833     -40694.962      388.66159     -40306.3        79.837383      130970.54    
  21952000   311.18833     -40694.968      388.66159     -40306.306      79.866046      130970.54    
  21953000   311.18833     -40694.964      388.66159     -40306.302      79.857533      130970.54    
  21954000   311.18833     -40694.964      388.66159     -40306.302      79.81139       130970.54    
  21955000   311.18833     -40694.964      388.66159     -40306.302      79.904229      130970.54    
  21956000   311.18833     -40694.966      388.66159     -40306.304      79.824719      130970.54    
  21957000   311.18833     -40694.967      388.66159     -40306.306      79.83211       130970.54    
  21958000   311.18833     -40694.97       388.66159     -40306.308      79.802117      130970.54    
  21959000   311.18833     -40694.966      388.66159     -40306.305      79.839681      130970.54    
  21960000   311.18833     -40694.968      388.66159     -40306.306      79.848896      130970.54    
  21961000   311.18833     -40694.966      388.66159     -40306.305      79.860539      130970.54    
  21962000   311.18833     -40694.966      388.66159     -40306.305      79.870783      130970.54    
  21963000   311.18833     -40694.96       388.66159     -40306.298      79.931851      130970.54    
  21964000   311.18833     -40694.968      388.66159     -40306.307      79.824216      130970.54    
  21965000   311.18833     -40694.967      388.66159     -40306.306      79.753237      130970.54    
  21966000   311.18833     -40694.97       388.66159     -40306.308      79.781223      130970.54    
  21967000   311.18833     -40694.968      388.66159     -40306.307      79.78033       130970.54    
  21968000   311.18833     -40694.966      388.66159     -40306.304      79.841949      130970.54    
  21969000   311.18833     -40694.965      388.66159     -40306.303      79.900203      130970.54    
  21970000   311.18833     -40694.969      388.66159     -40306.307      79.758132      130970.54    
  21971000   311.18833     -40694.967      388.66159     -40306.305      79.7717        130970.54    
  21972000   311.18833     -40694.958      388.66159     -40306.296      79.928085      130970.54    
  21973000   311.18833     -40694.963      388.66159     -40306.302      79.931707      130970.54    
  21974000   311.18833     -40694.967      388.66159     -40306.306      79.80203       130970.54    
  21975000   311.18833     -40694.965      388.66159     -40306.303      79.893652      130970.54    
  21976000   311.18833     -40694.967      388.66159     -40306.305      79.902058      130970.54    
  21977000   311.18833     -40694.965      388.66159     -40306.304      79.827128      130970.54    
  21978000   311.18833     -40694.963      388.66159     -40306.302      79.886973      130970.54    
  21979000   311.18833     -40694.969      388.66159     -40306.307      79.866573      130970.54    
  21980000   311.18833     -40694.968      388.66159     -40306.306      79.846049      130970.54    
  21981000   311.18833     -40694.967      388.66159     -40306.305      79.843348      130970.54    
  21982000   311.18833     -40694.968      388.66159     -40306.307      79.800454      130970.54    
  21983000   311.18833     -40694.964      388.66159     -40306.303      79.881963      130970.54    
  21984000   311.18833     -40694.967      388.66159     -40306.306      79.842001      130970.54    
  21985000   311.18833     -40694.97       388.66159     -40306.309      79.774037      130970.54    
  21986000   311.18833     -40694.969      388.66159     -40306.308      79.777806      130970.54    
  21987000   311.18833     -40694.968      388.66159     -40306.306      79.845365      130970.54    
  21988000   311.18833     -40694.964      388.66159     -40306.303      79.907072      130970.54    
  21989000   311.18833     -40694.967      388.66159     -40306.305      79.853356      130970.54    
  21990000   311.18833     -40694.968      388.66159     -40306.306      79.873643      130970.54    
  21991000   311.18833     -40694.966      388.66159     -40306.304      79.729602      130970.54    
  21992000   311.18833     -40694.968      388.66159     -40306.307      79.802421      130970.54    
  21993000   311.18833     -40694.965      388.66159     -40306.303      79.779132      130970.54    
  21994000   311.18833     -40694.968      388.66159     -40306.306      79.842704      130970.54    
  21995000   311.18833     -40694.969      388.66159     -40306.308      79.791676      130970.54    
  21996000   311.18833     -40694.97       388.66159     -40306.308      79.764461      130970.54    
  21997000   311.18833     -40694.963      388.66159     -40306.302      79.857273      130970.54    
  21998000   311.18833     -40694.966      388.66159     -40306.305      79.841883      130970.54    
  21999000   311.18833     -40694.965      388.66159     -40306.303      79.830637      130970.54    
  22000000   311.18833     -40694.966      388.66159     -40306.304      79.849595      130970.54    
  22001000   311.18833     -40694.96       388.66159     -40306.299      79.69593       130970.54    
  22002000   311.18833     -40694.966      388.66159     -40306.304      79.8807        130970.54    
  22003000   311.18833     -40694.965      388.66159     -40306.304      79.854251      130970.54    
  22004000   311.18833     -40694.967      388.66159     -40306.305      79.849294      130970.54    
  22005000   311.18833     -40694.968      388.66159     -40306.307      79.81922       130970.54    
  22006000   311.18833     -40694.964      388.66159     -40306.303      79.808652      130970.54    
  22007000   311.18833     -40694.967      388.66159     -40306.306      79.868173      130970.54    
  22008000   311.18833     -40694.969      388.66159     -40306.307      79.770944      130970.54    
  22009000   311.18833     -40694.969      388.66159     -40306.308      79.785562      130970.54    
  22010000   311.18833     -40694.961      388.66159     -40306.299      79.926002      130970.54    
  22011000   311.18833     -40694.967      388.66159     -40306.305      79.819168      130970.54    
  22012000   311.18833     -40694.968      388.66159     -40306.306      79.774989      130970.54    
  22013000   311.18833     -40694.966      388.66159     -40306.305      79.791632      130970.54    
  22014000   311.18833     -40694.963      388.66159     -40306.301      79.852049      130970.54    
  22015000   311.18833     -40694.97       388.66159     -40306.308      79.788521      130970.54    
  22016000   311.18833     -40694.961      388.66159     -40306.299      79.891938      130970.54    
  22017000   311.18833     -40694.963      388.66159     -40306.301      79.828049      130970.54    
  22018000   311.18833     -40694.967      388.66159     -40306.305      79.816137      130970.54    
  22019000   311.18833     -40694.966      388.66159     -40306.304      79.824681      130970.54    
  22020000   311.18833     -40694.962      388.66159     -40306.3        79.877422      130970.54    
  22021000   311.18833     -40694.963      388.66159     -40306.302      79.911409      130970.54    
  22022000   311.18833     -40694.966      388.66159     -40306.304      79.8359        130970.54    
  22023000   311.18833     -40694.963      388.66159     -40306.302      79.883102      130970.54    
  22024000   311.18833     -40694.965      388.66159     -40306.304      79.805632      130970.54    
  22025000   311.18833     -40694.965      388.66159     -40306.303      79.823337      130970.54    
  22026000   311.18833     -40694.967      388.66159     -40306.305      79.819165      130970.54    
  22027000   311.18833     -40694.969      388.66159     -40306.307      79.80192       130970.54    
  22028000   311.18833     -40694.968      388.66159     -40306.306      79.826604      130970.54    
  22029000   311.18833     -40694.968      388.66159     -40306.307      79.826461      130970.54    
  22030000   311.18833     -40694.961      388.66159     -40306.3        79.861594      130970.54    
  22031000   311.18833     -40694.965      388.66159     -40306.303      79.863392      130970.54    
  22032000   311.18833     -40694.963      388.66159     -40306.302      79.90957       130970.54    
  22033000   311.18833     -40694.968      388.66159     -40306.306      79.79713       130970.54    
  22034000   311.18833     -40694.965      388.66159     -40306.304      79.828         130970.54    
  22035000   311.18833     -40694.963      388.66159     -40306.301      79.862101      130970.54    
  22036000   311.18833     -40694.968      388.66159     -40306.306      79.779036      130970.54    
  22037000   311.18833     -40694.966      388.66159     -40306.305      79.746294      130970.54    
  22038000   311.18833     -40694.967      388.66159     -40306.305      79.832911      130970.54    
  22039000   311.18833     -40694.968      388.66159     -40306.306      79.866485      130970.54    
  22040000   311.18833     -40694.967      388.66159     -40306.306      79.77256       130970.54    
  22041000   311.18833     -40694.956      388.66159     -40306.295      79.948096      130970.54    
  22042000   311.18833     -40694.97       388.66159     -40306.308      79.784425      130970.54    
  22043000   311.18833     -40694.97       388.66159     -40306.308      79.811403      130970.54    
  22044000   311.18833     -40694.968      388.66159     -40306.306      79.775392      130970.54    
  22045000   311.18833     -40694.966      388.66159     -40306.305      79.836062      130970.54    
  22046000   311.18833     -40694.968      388.66159     -40306.306      79.817071      130970.54    
  22047000   311.18833     -40694.969      388.66159     -40306.307      79.830971      130970.54    
  22048000   311.18833     -40694.96       388.66159     -40306.299      79.921747      130970.54    
  22049000   311.18833     -40694.964      388.66159     -40306.302      79.867065      130970.54    
  22050000   311.18833     -40694.966      388.66159     -40306.304      79.765357      130970.54    
  22051000   311.18833     -40694.966      388.66159     -40306.305      79.801972      130970.54    
  22052000   311.18833     -40694.967      388.66159     -40306.305      79.823776      130970.54    
  22053000   311.18833     -40694.969      388.66159     -40306.307      79.760489      130970.54    
  22054000   311.18833     -40694.965      388.66159     -40306.303      79.865129      130970.54    
  22055000   311.18833     -40694.969      388.66159     -40306.307      79.844221      130970.54    
  22056000   311.18833     -40694.968      388.66159     -40306.306      79.81408       130970.54    
  22057000   311.18833     -40694.968      388.66159     -40306.307      79.804753      130970.54    
  22058000   311.18833     -40694.967      388.66159     -40306.305      79.717508      130970.54    
  22059000   311.18833     -40694.963      388.66159     -40306.302      79.89262       130970.54    
  22060000   311.18833     -40694.965      388.66159     -40306.304      79.910426      130970.54    
  22061000   311.18833     -40694.969      388.66159     -40306.307      79.773703      130970.54    
  22062000   311.18833     -40694.966      388.66159     -40306.305      79.80716       130970.54    
  22063000   311.18833     -40694.968      388.66159     -40306.307      79.776871      130970.54    
  22064000   311.18833     -40694.966      388.66159     -40306.304      79.813387      130970.54    
  22065000   311.18833     -40694.962      388.66159     -40306.3        79.906426      130970.54    
  22066000   311.18833     -40694.968      388.66159     -40306.306      79.837908      130970.54    
  22067000   311.18833     -40694.964      388.66159     -40306.303      79.645413      130970.54    
  22068000   311.18833     -40694.964      388.66159     -40306.303      79.83875       130970.54    
  22069000   311.18833     -40694.968      388.66159     -40306.307      79.813387      130970.54    
  22070000   311.18833     -40694.962      388.66159     -40306.3        79.864787      130970.54    
  22071000   311.18833     -40694.968      388.66159     -40306.306      79.891951      130970.54    
  22072000   311.18833     -40694.969      388.66159     -40306.308      79.836407      130970.54    
  22073000   311.18833     -40694.969      388.66159     -40306.307      79.857083      130970.54    
  22074000   311.18833     -40694.966      388.66159     -40306.304      79.858332      130970.54    
  22075000   311.18833     -40694.969      388.66159     -40306.307      79.800501      130970.54    
  22076000   311.18833     -40694.965      388.66159     -40306.304      79.826634      130970.54    
  22077000   311.18833     -40694.965      388.66159     -40306.304      79.811932      130970.54    
  22078000   311.18833     -40694.967      388.66159     -40306.306      79.838882      130970.54    
  22079000   311.18833     -40694.968      388.66159     -40306.307      79.834043      130970.54    
  22080000   311.18833     -40694.967      388.66159     -40306.306      79.757744      130970.54    
  22080001   311.18833     -40694.965      388.66159     -40306.304      79.794745      130970.54    
Loop time of 2670.12 on 8 procs for 2000000 steps with 420 atoms

Performance: 16.179 ns/day, 1.483 hours/ns, 749.030 timesteps/s, 314.593 katom-step/s
99.6% CPU use with 8 MPI tasks x 1 OpenMP threads

MPI task timing breakdown:
Section |  min time  |  avg time  |  max time  |%varavg| %total
---------------------------------------------------------------
Pair    | 751.13     | 1237       | 1556.3     | 756.2 | 46.33
Neigh   | 0.0092603  | 0.011568   | 0.014268   |   1.6 |  0.00
Comm    | 60.732     | 374.55     | 859.16     |1364.6 | 14.03
Output  | 0.071069   | 0.075721   | 0.084481   |   1.4 |  0.00
Modify  | 1045.7     | 1049.2     | 1052.5     |   7.6 | 39.29
Other   |            | 9.272      |            |       |  0.35

Nlocal:           52.5 ave          85 max           7 min
Histogram: 1 0 1 1 0 0 1 2 1 1
Nghost:        365.625 ave         426 max         300 min
Histogram: 1 0 1 0 1 3 0 0 0 2
Neighs:         1694.5 ave        3590 max          73 min
Histogram: 1 1 2 0 1 0 1 0 1 1

Total # of neighbors = 13556
Ave neighs/atom = 32.27619
Neighbor list builds = 40
Dangerous builds = 0
=== HOLD COMPLETE ===
System init for write_data ...
System init for write_restart ...
Total wall time: 0:44:30
