LAMMPS data file via write_data, version 4 Feb 2025, timestep = 1, units = real

420 atoms
3 atom types

0 50 xlo xhi
0 50 ylo yhi
0 25 zlo zhi

Masses

1 1.008
2 12.0107
3 15.9994

Atoms # charge

18 2 -0.2194247212194955 0.24260598196232333 0.9130927626015277 1.1039015180420715 0 0 0
19 1 0.09903377709783552 0.9722693834335906 1.6750038182672353 1.3980315135293009 0 0 0
27 1 0.06985388797534933 2.8093863436419624 0.23882825916072123 0.3543971556724136 0 0 0
20 1 0.09973443711274944 24.873610050729656 1.1881428488841004 0.1101175235704752 0 0 0
21 1 0.1053449599869121 24.39827349356874 0.9866513678160944 1.7963614319000352 0 0 0
94 3 -0.07868101929984223 3.4223624508760313 11.075478761338482 5.771119299713306 0 0 0
95 3 -0.08963649188233277 3.886637197771196 10.953073567791067 4.6005380776533205 0 0 0
76 2 -0.1253769401880591 3.0529675902118116 14.874128029476655 0.2612183909198713 0 0 0
77 1 0.08867042928612945 3.7402181131777033 14.546174069146158 1.0418251982480753 0 0 0
78 1 0.08159322567876576 3.309575980340469 15.917065527774179 0.07231658897410365 0 0 0
79 2 -0.09305202245035474 1.550432931574784 14.720381500613756 0.7112842212937815 0 0 0
80 1 0.07891490654011277 1.2988589185645192 13.675416976670691 0.897966471356539 0 0 0
82 2 -0.2244152987119425 1.3784655636952996 15.58599240027007 2.0133476422345162 0 0 0
83 1 0.1061288843499507 0.35329686480563666 15.53540531143192 2.393266909778321 0 0 0
84 1 0.1161554594937153 2.040580857362893 15.246802654744341 2.8170360539396415 0 0 0
85 1 0.09254839535928776 1.607001710584236 16.641742825573953 1.8325257372083974 0 0 0
22 2 -0.09646432759894703 0.8688358628396429 24.470141868359978 1.1151472398945774 0 0 0
23 1 0.07281133766984707 1.2105758546090044 24.1977429131119 2.1146319507970595 0 0 0
24 1 0.07258195753605005 0.12699136269193703 23.717596745839355 0.8444349593074 0 0 0
25 2 -0.1114330673678734 2.0645166244281024 24.48799593887852 0.08838527372946293 0 0 0
28 2 -0.09259839052960384 2.6715741994006383 23.033960843563577 0.12069419291947493 0 0 0
30 1 0.0803593237384123 3.0063179490649055 22.768011569910254 1.1243756490504062 0 0 0
88 3 -0.0776312347429286 18.165215451860607 4.734541702268294 8.819176003969766 0 0 0
89 3 -0.0766295944049889 18.654642154976962 4.572926123832374 7.6638050288974195 0 0 0
7 1 0.07526878923466235 10.798120231602246 12.335513046021944 11.603022204808209 0 0 0
11 2 -0.09942488425248562 13.224306614605377 11.42808162131648 12.471990505796962 0 0 0
12 1 0.0751745493888147 12.83856584714158 10.891888795244531 11.60384961281307 0 0 0
14 2 -0.2215054318173848 14.79713116528766 11.451250785979289 12.471072903843734 0 0 0
15 1 0.1059837445029096 15.210780913543726 10.437988151579916 12.473534461053639 0 0 0
16 1 0.09939364589434838 15.195409975629788 11.963395991547449 11.588737219254886 0 0 0
1 2 -0.2235615609518081 10.672322080085694 14.367924067740045 12.47166177824571 0 0 0
3 1 0.1024980125786695 11.02443978452648 14.915394464982871 11.59094288226261 0 0 0
4 1 0.1040429628928554 9.57912964515146 14.420096865674086 12.471659054066254 0 0 0
5 2 -0.09844739567657468 11.174805079542322 12.877285102835542 12.471650666965353 0 0 0
8 2 -0.1118296730487406 12.75001470817606 12.931124875506386 12.471630578853471 0 0 0
9 1 0.07317126686961914 13.132117330542915 13.471336157898419 11.604809789431085 0 0 0
41 1 0.08284889130939539 1.0439660297229238 12.440701432244683 17.56673307088888 0 0 0
6 1 0.07503827847154852 10.798142021184761 12.335521582040506 13.34029110871293 0 0 0
13 1 0.07828884438096168 12.8395818500022 10.89278137597714 13.341121230558441 0 0 0
17 1 0.1015305020224747 15.196383627324016 11.968086139031048 13.350224802509183 0 0 0
104 3 -0.08081036885014348 24.47056029580846 7.422206943942853 14.249873872776922 0 0 0
105 3 -0.07593136638566758 24.431823565924653 7.371039302033525 12.986368683415332 0 0 0
35 2 -0.2297851412259023 1.379016385324693 14.62860945282142 17.527551312639943 0 0 0
36 1 0.1122731290733423 1.0838604112538628 15.52190819499314 18.088142160579867 0 0 0
37 1 0.1050943819014593 2.473796316174554 14.599713770184174 17.52254538470526 0 0 0
38 1 0.1131789427293362 1.0527120843506212 14.771526843426553 16.492730575913292 0 0 0
39 2 -0.1146650522458796 0.7632556222473676 13.320513419709139 18.14729369890641 0 0 0
2 1 0.1052195242795986 11.024441463203843 14.915411711763936 13.352354811751795 0 0 0
10 1 0.07420579458867223 13.13211691337549 13.471687169861713 13.338233434124046 0 0 0
40 1 0.1001766963929688 24.673083685431 13.35026861556895 18.124696652970893 0 0 0
100 3 -0.08258204953277848 3.4523786008197113 19.931353370420016 16.389571796871838 0 0 0
101 3 -0.08340559852416404 2.862856880568398 19.60259977535971 15.31949038648777 0 0 0
103 3 -0.08029832284224359 12.06600178981094 21.164906568436283 14.242315191671768 0 0 0
102 3 -0.07638894656557865 12.850001485622768 21.952778744051777 13.638015549245784 0 0 0
57 1 0.101629750228928 9.576337953270468 6.011187870053799 22.330232612343455 0 0 0
96 3 -0.1313176853155374 11.939992932584367 4.941193002367979 20.86035796531057 0 0 0
97 3 -0.09688678980409002 12.987770833220178 5.477836355574816 20.395686205421462 0 0 0
45 2 -0.1290328064265886 0.6691944742019399 11.908159385629965 20.220166051450935 0 0 0
46 1 0.0873207695589393 0.9495971497094143 11.034200886750812 19.630797242173923 0 0 0
48 2 -0.1892092719248518 1.191011934493899 11.78563385478601 21.698996276884106 0 0 0
49 1 0.1012573954639299 0.7936665603957338 10.891149424436342 22.189064801514434 0 0 0
50 1 0.06163101352296532 2.283786517845177 11.721589525471467 21.74062973005463 0 0 0
66 1 0.08587665685999565 5.818207113027908 9.065195840405082 21.717968432599093 0 0 0
52 2 -0.2882743042745972 11.41675607955012 7.164640692476048 22.76017115492323 0 0 0
53 1 0.2087012036297567 11.748599147689724 7.2834200286914985 21.72353042213027 0 0 0
54 1 0.1269410820584854 11.721544363447004 8.066214721783707 23.300581457326253 0 0 0
55 1 0.1595333342035345 11.975006036407077 6.324818100545951 23.185421392321576 0 0 0
56 2 -0.09343327977388823 9.864857608883169 6.925174612941683 22.851639573306056 0 0 0
58 1 0.06295290990046153 9.54924526700378 6.783217511672285 23.88641238894461 0 0 0
59 2 -0.1389659225830965 9.173794736990128 8.189010533470238 22.212637139140043 0 0 0
60 1 0.1026786945469864 9.45827849507088 9.105652225503851 22.730409987975833 0 0 0
61 1 0.1017782632727077 9.485379254158419 8.335382691559168 21.177922099338524 0 0 0
62 2 -0.09279203554256302 7.6239976493371735 7.922453909034286 22.317836599377713 0 0 0
63 1 0.06797957105605765 7.317771476070838 7.775732943212353 23.354606347521386 0 0 0
64 1 0.07219607323117801 7.34489062401406 7.0048102020739975 21.797978882578832 0 0 0
65 2 -0.2261813073607983 6.9070845733619555 9.172142351503767 21.686571295219427 0 0 0
67 1 0.1203336347444414 7.159228705330899 10.09629323416415 22.21724862162724 0 0 0
68 1 0.1061380745699864 7.189949514315619 9.31622873133293 20.638393915614802 0 0 0
98 3 -0.09660905086260635 14.086279806742045 9.508053473838551 20.808107556319815 0 0 0
99 3 -0.07877643451948799 14.09441364572215 10.682138269218427 20.336514969966988 0 0 0
47 1 0.1379462220123463 24.57959814837273 11.944405000742126 20.189686739244536 0 0 0
92 3 -0.118615748525401 21.905460480396577 11.54310300484868 19.823924203836345 0 0 0
93 3 -0.0749603461919594 20.761733126614846 11.619197507960282 20.35997067645065 0 0 0
42 2 -0.09883122289498644 1.3008914906480595 13.22399857794971 19.62566017748023 0 0 0
43 1 0.05601932716996437 2.390821457554647 13.193510913032485 19.65425239771089 0 0 0
44 1 0.065567928016428 1.0229991340464675 14.101396103179784 20.2108640641591 0 0 0
51 1 0.07625155672815537 0.8959286274177038 12.647643945987467 22.306702231580648 0 0 0
69 2 -0.2465612495884569 4.690070748921823 14.133286343545935 23.48572532061055 0 0 0
70 1 0.1333845717953425 4.953635508499851 15.172738577741839 23.26388661149455 0 0 0
71 1 0.1286171680577289 5.391580910614798 13.7800751383971 24.248799552986508 0 0 0
72 1 0.1047334592529301 4.875552167674501 13.550015167807244 22.578580375147048 0 0 0
73 2 -0.07615476079321556 3.1959757203531356 13.998042860223073 23.958842361278656 0 0 0
74 1 0.04036103282482863 2.506056565904848 14.330167910897304 23.181840564524357 0 0 0
75 1 0.05010355138032793 2.9380343970660228 12.956096370882523 24.153632057908798 0 0 0
81 1 0.06509461543929006 0.8674819547337523 15.050006358291196 24.927014128941746 0 0 0
86 3 -0.1276636330416775 8.516505431327689 13.050002470701084 22.437192125770586 0 0 0
87 3 -0.07849452753898775 9.439275954258154 13.720237984062441 21.88858741110211 0 0 0
26 1 0.06978204929772337 1.7282710012847562 24.75937014800703 24.08706924419892 0 0 0
29 1 0.06942204508639967 1.9220576396682014 22.287044287927287 24.85505022293006 0 0 0
31 2 -0.2595852035338459 3.869835484336512 23.021924976993848 24.10174423979181 0 0 0
32 1 0.1771512820149237 4.352118719464021 22.040647070030687 24.064989512637723 0 0 0
33 1 0.1114207684097737 3.5407882795776984 23.261790271444962 23.08517570475757 0 0 0
34 1 0.1237313223323878 4.639325001040707 23.75293168166262 24.371304924496435 0 0 0
90 3 -0.1103277593841756 6.435322611601084 20.341279104477408 24.800304702843754 0 0 0
91 3 -0.1070001092709932 6.448791689617163 20.31630511918805 23.535147912005204 0 0 0
228 2 -0.2194244689734166 0.2426059819619082 25.913092762602037 1.103901518042237 0 0 0
229 1 0.09903397574546502 0.9722693834336162 26.675003818266966 1.3980315135291859 0 0 0
237 1 0.06985410775783818 2.809386343641878 25.23882825916052 0.3543971556723628 0 0 0
230 1 0.09973451648867236 24.873610050729738 26.188142848884024 0.11011752357051251 0 0 0
231 1 0.1053450338718794 24.398273493568837 25.98665136781604 1.7963614318999728 0 0 0
304 3 -0.07868076443484584 3.42236245087586 36.07547876133942 5.771119299711677 0 0 0
305 3 -0.08963609629043112 3.8866371977703964 35.953073567793005 4.6005380776512 0 0 0
286 2 -0.1253732034206153 3.0529675902067175 39.87412802947005 0.26121839091140975 0 0 0
287 1 0.08867366920663647 3.740218113183264 39.546174069145714 1.0418251982566733 0 0 0
288 1 0.08159637702375949 3.309575980342965 40.91706552778268 0.07231658897592373 0 0 0
289 2 -0.0930481589950948 1.5504329315816174 39.72038150061373 0.7112842212896897 0 0 0
290 1 0.07891772692790676 1.2988589185601374 38.675416976666675 0.8979664713634432 0 0 0
292 2 -0.2244120059975069 1.3784655637042542 40.58599240025972 2.0133476422152223 0 0 0
293 1 0.106131496358509 0.35329686479780603 40.53540531143418 2.3932669097853094 0 0 0
294 1 0.116158331029257 2.0405808573631923 40.246802654745224 2.8170360539513926 0 0 0
295 1 0.09255123973209942 1.607001710582196 41.641742825581524 1.832525737212753 0 0 0
232 2 -0.09646458713172448 0.8688358628398503 49.470141868359924 1.1151472398944045 0 0 0
233 1 0.07281113357264893 1.2105758546089376 49.197742913112 2.1146319507972935 0 0 0
234 1 0.07258175658140338 0.12699136269168074 48.71759674583943 0.8444349593074195 0 0 0
235 2 -0.1114333379012455 2.064516624428141 49.48799593887819 0.08838527372953864 0 0 0
238 2 -0.09259856732493706 2.671574199400682 48.03396084356326 0.12069419291940067 0 0 0
240 1 0.08035920007651616 3.0063179490650636 47.76801156991069 1.1243756490506458 0 0 0
298 3 -0.07763123471578315 18.165215451860607 29.734541702268295 8.819176003969764 0 0 0
299 3 -0.07662959435797159 18.654642154976962 29.572926123832374 7.6638050288974195 0 0 0
217 1 0.07526878952758256 10.798120231602246 37.335513046021944 11.603022204808207 0 0 0
221 2 -0.09942488385184184 13.224306614605375 36.42808162131648 12.471990505796965 0 0 0
222 1 0.07517454979809268 12.83856584714158 35.89188879524453 11.603849612813068 0 0 0
224 2 -0.2215054314316507 14.79713116528766 36.45125078597929 12.471072903843739 0 0 0
225 1 0.1059837447940839 15.210780913543728 35.437988151579916 12.473534461053635 0 0 0
226 1 0.09939364629901629 15.19540997562979 36.96339599154745 11.588737219254886 0 0 0
211 2 -0.223561560549622 10.672322080085692 39.36792406774005 12.47166177824571 0 0 0
213 1 0.1024980127077473 11.02443978452648 39.91539446498287 11.59094288226261 0 0 0
214 1 0.1040429625090552 9.579129645151468 39.42009686567409 12.471659054066247 0 0 0
215 2 -0.09844739544866707 11.17480507954232 37.877285102835536 12.471650666965354 0 0 0
218 2 -0.1118296726358001 12.750014708176062 37.93112487550639 12.471630578853473 0 0 0
219 1 0.07317126726582136 13.132117330542915 38.47133615789842 11.604809789431084 0 0 0
251 1 0.08284531465087915 1.0439660297232891 37.44070143224115 17.56673307088063 0 0 0
216 1 0.07503827870285083 10.798142021184763 37.335521582040506 13.340291108712922 0 0 0
223 1 0.07828884435906747 12.8395818500022 35.892781375977144 13.341121230558434 0 0 0
227 1 0.1015305020647742 15.196383627324016 36.96808613903105 13.350224802509176 0 0 0
314 3 -0.08081039619736594 24.470560295808514 32.422206943943074 14.249873872777107 0 0 0
315 3 -0.07593137410530573 24.43182356592467 32.3710393020336 12.986368683415424 0 0 0
245 2 -0.2297890483529244 1.379016385322486 39.62860945280727 17.5275513126581 0 0 0
246 1 0.1122701854031314 1.0838604112521513 40.52190819500335 18.08814216057533 0 0 0
247 1 0.1050914249149736 2.473796316180691 39.59971377018857 17.52254538469785 0 0 0
248 1 0.1131761387533581 1.0527120843494506 39.77152684343096 16.492730575903146 0 0 0
249 2 -0.114669359295591 0.7632556222520833 38.32051341971009 18.147293698916776 0 0 0
212 1 0.1052195244476055 11.024441463203843 39.91541171176394 13.352354811751791 0 0 0
220 1 0.07420579482390524 13.13211691337549 38.47168716986171 13.338233434124042 0 0 0
250 1 0.1001754042515341 24.673083685427386 38.35026861556962 18.12469665296837 0 0 0
310 3 -0.0825822333455267 3.452378600819293 44.931353370419004 16.38957179687203 0 0 0
311 3 -0.08340580369749589 2.8628568805681813 44.60259977535878 15.31949038648837 0 0 0
313 3 -0.08029832283993457 12.06600178981094 46.16490656843629 14.242315191671768 0 0 0
312 3 -0.07638894655857772 12.850001485622768 46.95277874405178 13.638015549245784 0 0 0
267 1 0.1016294858596225 9.576337953271087 31.011187870051153 22.33023261234295 0 0 0
306 3 -0.1313178058198326 11.939992932583518 29.941193002369623 20.860357965311373 0 0 0
307 3 -0.09688689344251714 12.987770833219034 30.477836355575313 20.39568620542222 0 0 0
255 2 -0.1290364297926739 0.6691944742103441 36.90815938563943 20.220166051456918 0 0 0
256 1 0.08731773194178999 0.9495971497087555 36.03420088674123 19.6307972421692 0 0 0
258 2 -0.1892113584202034 1.1910119344987844 36.78563385480034 21.698996276877928 0 0 0
259 1 0.1012559185171129 0.7936665603897489 35.891149424424334 22.189064801518175 0 0 0
260 1 0.06162960451356829 2.283786517846521 36.72158952546642 21.7406297300535 0 0 0
276 1 0.08587642698214389 5.81820711302893 34.065195840401515 21.71796843259853 0 0 0
262 2 -0.2882746353751265 11.416756079543994 32.16464069247748 22.760171154922197 0 0 0
263 1 0.2087009702205265 11.748599147694032 32.28342002869071 21.723530422127777 0 0 0
264 1 0.1269408621984451 11.721544363449555 33.06621472178454 23.30058145732756 0 0 0
265 1 0.1595331244866186 11.975006036409981 31.32481810054376 23.18542139232271 0 0 0
266 2 -0.09343358575029236 9.864857608882621 31.925174612943557 22.851639573305167 0 0 0
268 1 0.06295265245189077 9.549245267004205 31.783217511671552 23.88641238894594 0 0 0
269 2 -0.1389662201108253 9.17379473698796 33.189010533470245 22.212637139140508 0 0 0
270 1 0.1026784787398184 9.458278495072896 34.10565222550488 22.73040998797681 0 0 0
271 1 0.1017780155776063 9.485379254160057 33.33538269155901 21.17792209933633 0 0 0
272 2 -0.09279231632869359 7.623997649337283 32.922453909036946 22.317836599377113 0 0 0
273 1 0.06797940744530026 7.317771476070624 32.7757329432111 23.354606347522864 0 0 0
274 1 0.07219587088758833 7.344890624013572 32.00481020207204 21.797978882578093 0 0 0
275 2 -0.2261814474153392 6.907084573358956 34.172142351507595 21.686571295222116 0 0 0
277 1 0.1203336016809413 7.159228705334898 35.09629323416314 22.21724862162741 0 0 0
278 1 0.1061378666291709 7.18994951431771 34.31622873133155 20.638393915611395 0 0 0
308 3 -0.09660912620667883 14.086279806741128 34.50805347383828 20.80810755632011 0 0 0
309 3 -0.07877648778284058 14.094413645721636 35.68213826921798 20.33651496996729 0 0 0
257 1 0.1379451463965229 24.579598148365918 36.944405000739906 20.189686739243818 0 0 0
302 3 -0.1186161347640295 21.90546048039935 36.54310300484952 19.823924203836757 0 0 0
303 3 -0.07496055591096584 20.76173312661648 36.619197507960486 20.359970676450452 0 0 0
252 2 -0.0988352561622363 1.300891490646964 38.22399857794633 19.62566017748402 0 0 0
253 1 0.0560162774212186 2.3908214575575646 38.193510913032306 19.654252397707236 0 0 0
254 1 0.06556498081051408 1.022999134043315 39.10139610318418 20.21086406415738 0 0 0
261 1 0.07625043131184132 0.8959286274115473 37.64764394598578 22.306702231581895 0 0 0
279 2 -0.2465589883077 4.690070748895401 39.13328634354212 23.485725320613273 0 0 0
280 1 0.133386558269374 4.9536355085124555 40.17273857775324 23.263886611491017 0 0 0
281 1 0.1286193039456342 5.391580910630002 38.780075138394814 24.248799552991816 0 0 0
282 1 0.1047347971188115 4.8755521676850035 38.55001516780584 22.57858037514241 0 0 0
283 2 -0.07615183474221027 3.195975720353347 38.99804286022464 23.958842361278652 0 0 0
284 1 0.04036270817606904 2.506056565905851 39.33016791090002 23.18184056452456 0 0 0
285 1 0.05010558789445892 2.938034397067979 37.956096370879486 24.153632057911974 0 0 0
291 1 0.06509729517501968 0.8674819547281704 40.05000635829506 24.927014128943302 0 0 0
296 3 -0.127663330342475 8.516505431322294 38.05000247070092 22.437192125771247 0 0 0
297 3 -0.07849434908624608 9.439275954255276 38.72023798406138 21.8885874111031 0 0 0
236 1 0.06978182800173817 1.7282710012846607 49.75937014800716 24.08706924419876 0 0 0
239 1 0.06942195567187671 1.9220576396680502 47.287044287927856 24.855050222929904 0 0 0
241 2 -0.2595853499775297 3.8698354843359284 48.021924976992864 24.101744239792406 0 0 0
242 1 0.177151250089768 4.3521187194646815 47.04064707003211 24.064989512637304 0 0 0
243 1 0.1114206385784158 3.540788279577737 48.261790271445236 23.085175704757113 0 0 0
244 1 0.1237311900839236 4.639325001041115 48.75293168166298 24.37130492449639 0 0 0
300 3 -0.1103275938406818 6.435322611599839 45.341279104475355 24.800304702843405 0 0 0
301 3 -0.1069999622312791 6.448791689616082 45.31630511918613 23.535147912005844 0 0 0
123 2 -0.2194246007981079 25.242605981962132 0.9130927626017616 1.1039015180421476 0 0 0
124 1 0.09903386738488192 25.972269383433602 1.6750038182671114 1.398031513529248 0 0 0
132 1 0.06985398426817545 27.809386343641926 0.23882825916062944 0.35439715567238994 0 0 0
125 1 0.09973434604104621 49.87361005072956 1.1881428488841896 0.11011752357043211 0 0 0
126 1 0.1053448784060894 49.39827349356863 0.986651367816157 1.7963614319001076 0 0 0
199 3 -0.07868098980792518 28.422362450876005 11.075478761338616 5.771119299713072 0 0 0
200 3 -0.08963644374913082 28.886637197771083 10.953073567791344 4.600538077653017 0 0 0
181 2 -0.1253765377446181 28.052967590211082 14.874128029475708 0.2612183909186578 0 0 0
182 1 0.08867081502987824 28.7402181131785 14.546174069146094 1.0418251982493079 0 0 0
183 1 0.08159359520190668 28.309575980340828 15.917065527775398 0.0723165889743648 0 0 0
184 2 -0.09305150550532959 26.550432931575763 14.720381500613751 0.7112842212931947 0 0 0
185 1 0.07891521902095222 26.29885891856389 13.675416976670116 0.8979664713575287 0 0 0
187 2 -0.2244149662937759 26.378465563696583 15.585992400268587 2.013347642231751 0 0 0
188 1 0.1061292232622972 25.353296864804513 15.535405311432244 2.393266909779322 0 0 0
189 1 0.1161558218972838 27.040580857362936 15.246802654744467 2.8170360539413255 0 0 0
190 1 0.09254875368638302 26.607001710583944 16.64174282557504 1.8325257372090218 0 0 0
127 2 -0.0964643607953411 25.868835862839674 24.47014186835997 1.1151472398945526 0 0 0
128 1 0.07281131077002805 26.210575854608997 24.197742913111913 2.1146319507970928 0 0 0
129 1 0.07258193030601219 25.1269913626919 23.717596745839366 0.8444349593074029 0 0 0
130 2 -0.1114331056965784 27.06451662442811 24.487995938878473 0.08838527372947376 0 0 0
133 2 -0.09259841386060316 27.671574199400645 23.03396084356353 0.1206941929194637 0 0 0
135 1 0.08035930475312775 28.00631794906493 22.768011569910318 1.12437564905044 0 0 0
193 3 -0.07763123471853425 43.16521545186061 4.734541702268294 8.819176003969764 0 0 0
194 3 -0.07662959438589931 43.65464215497696 4.572926123832375 7.66380502889742 0 0 0
112 1 0.07526878920695479 35.79812023160225 12.335513046021942 11.603022204808207 0 0 0
116 2 -0.09942488425684631 38.224306614605375 11.428081621316482 12.471990505796962 0 0 0
117 1 0.07517454941822377 37.83856584714158 10.89188879524453 11.60384961281307 0 0 0
119 2 -0.2215054317905872 39.79713116528766 11.45125078597929 12.471072903843734 0 0 0
120 1 0.1059837445329263 40.21078091354372 10.437988151579914 12.473534461053637 0 0 0
121 1 0.09939364595089907 40.19540997562979 11.963395991547449 11.588737219254885 0 0 0
106 2 -0.2235615609188243 35.67232208008569 14.367924067740045 12.47166177824571 0 0 0
108 1 0.1024980125019663 36.02443978452648 14.915394464982871 11.59094288226261 0 0 0
109 1 0.1040429627476052 34.57912964515146 14.420096865674086 12.471659054066253 0 0 0
110 2 -0.09844739577898544 36.174805079542324 12.877285102835542 12.471650666965353 0 0 0
113 2 -0.1118296730722565 37.75001470817606 12.931124875506386 12.471630578853471 0 0 0
114 1 0.07317126687545281 38.13211733054292 13.471336157898419 11.604809789431084 0 0 0
146 1 0.08284833971016957 26.043966029722974 12.440701432244175 17.566733070887697 0 0 0
111 1 0.07503827842857044 35.79814202118476 12.335521582040508 13.340291108712929 0 0 0
118 1 0.07828884425849725 37.8395818500022 10.89278137597714 13.341121230558441 0 0 0
122 1 0.1015305019608377 40.19638362732402 11.968086139031048 13.350224802509183 0 0 0
209 3 -0.08081035323117794 49.47056029580845 7.422206943942773 14.249873872776856 0 0 0
210 3 -0.07593135833714512 49.431823565924645 7.371039302033499 12.9863686834153 0 0 0
140 2 -0.2297857613062788 26.379016385324377 14.62860945281939 17.527551312642547 0 0 0
141 1 0.1122727054635404 26.083860411253617 15.521908194994602 18.088142160579217 0 0 0
142 1 0.1050939535479044 27.473796316175434 14.599713770184804 17.5225453847042 0 0 0
143 1 0.1131785461980034 26.052712084350453 14.771526843427186 16.492730575911835 0 0 0
144 2 -0.1146656828197654 25.763255622248046 13.320513419709275 18.147293698907895 0 0 0
107 1 0.1052195242167068 36.02444146320384 14.915411711763936 13.352354811751795 0 0 0
115 1 0.07420579453529173 38.13211691337549 13.471687169861713 13.338233434124044 0 0 0
145 1 0.1001772504061006 49.673083685432296 13.35026861556871 18.1246966529718 0 0 0
205 3 -0.08258206971651313 28.45237860081965 19.93135337041987 16.389571796871866 0 0 0
206 3 -0.08340562298493717 27.862856880568366 19.60259977535958 15.319490386487855 0 0 0
208 3 -0.0802983228382099 37.06600178981094 21.164906568436283 14.242315191671768 0 0 0
207 3 -0.07638894656242604 37.85000148562276 21.952778744051777 13.638015549245784 0 0 0
162 1 0.1016296870233925 34.57633795327055 6.011187870053416 22.33023261234338 0 0 0
201 3 -0.1313177135423032 36.939992932584246 4.941193002368218 20.860357965310687 0 0 0
202 3 -0.09688681519185202 37.98777083322001 5.4778363555748895 20.395686205421573 0 0 0
150 2 -0.1290333830518071 25.669194474203145 11.908159385631322 20.22016605145179 0 0 0
151 1 0.0873202994241444 25.94959714970932 11.034200886749439 19.630797242173248 0 0 0
153 2 -0.1892096286456527 26.1910119344946 11.785633854788063 21.69899627688322 0 0 0
154 1 0.1012571395513454 25.793666560394875 10.89114942443462 22.18906480151497 0 0 0
155 1 0.06163074771768003 27.28378651784537 11.721589525470744 21.740629730054465 0 0 0
171 1 0.08587658471293753 30.81820711302805 9.065195840404572 21.71796843259901 0 0 0
157 2 -0.2882743922111692 36.41675607954923 7.1646406924762545 22.760171154923082 0 0 0
158 1 0.2087011507148337 36.748599147690356 7.283420028691386 21.723530422129905 0 0 0
159 1 0.1269410320463521 36.72154436344737 8.06621472178383 23.300581457326444 0 0 0
160 1 0.1595332888441444 36.9750060364075 6.324818100545631 23.185421392321743 0 0 0
161 2 -0.0934333494720897 34.86485760888309 6.925174612941957 22.851639573305924 0 0 0
163 1 0.06295284676302462 34.54924526700384 6.783217511672179 23.8864123889448 0 0 0
164 2 -0.1389660016868506 34.17379473698981 8.189010533470233 22.212637139140114 0 0 0
165 1 0.1026786296412532 34.45827849507117 9.105652225504004 22.730409987975975 0 0 0
166 1 0.1017781979971208 34.48537925415865 8.335382691559149 21.177922099338204 0 0 0
167 2 -0.09279212066035428 32.62399764933719 7.9224539090346715 22.317836599377628 0 0 0
168 1 0.06797952754903122 32.3177714760708 7.775732943212175 23.3546063475216 0 0 0
169 1 0.07219602679053587 32.344890624013985 7.004810202073716 21.797978882578725 0 0 0
170 2 -0.2261813515037771 31.907084573361534 9.172142351504307 21.686571295219814 0 0 0
172 1 0.1203335843969204 32.15922870533147 10.096293234164012 22.217248621627263 0 0 0
173 1 0.1061380082870927 32.18994951431592 9.316228731332735 20.638393915614312 0 0 0
203 3 -0.09660907170065081 39.086279806741906 9.508053473838508 20.80810755631986 0 0 0
204 3 -0.0787764504311296 39.09441364572207 10.682138269218362 20.336514969967034 0 0 0
152 1 0.1379466941939795 49.579598148375176 11.944405000742922 20.18968673924479 0 0 0
197 3 -0.1186155702947464 46.905460480395575 11.54310300484838 19.823924203836196 0 0 0
198 3 -0.0749602321805766 45.76173312661425 11.619197507960207 20.359970676450725 0 0 0
147 2 -0.09883185616250525 26.300891490647903 13.223998577949224 19.625660177480775 0 0 0
148 1 0.05601884724243886 27.390821457555063 13.19351091303246 19.654252397710366 0 0 0
149 1 0.06556746748624515 26.022999134046017 14.101396103180415 20.210864064158855 0 0 0
156 1 0.07625133772395165 25.89592862741682 12.647643945987225 22.30670223158083 0 0 0
174 2 -0.2465610468559732 29.690070748918036 14.133286343545386 23.485725320610936 0 0 0
175 1 0.1333847922185526 29.953635508501655 15.172738577743475 23.26388661149404 0 0 0
176 1 0.1286174099238293 30.391580910616977 13.780075138396773 24.24879955298727 0 0 0
177 1 0.1047335975486703 29.875552167676005 13.550015167807043 22.578580375146384 0 0 0
178 2 -0.07615439846206125 28.195975720353168 13.998042860223299 23.958842361278652 0 0 0
179 1 0.0403611817997008 27.50605656590499 14.330167910897694 23.181840564524386 0 0 0
180 1 0.05010375069289565 27.938034397066303 12.956096370882088 24.153632057909252 0 0 0
186 1 0.06509490550781677 25.867481954732952 15.050006358291748 24.92701412894197 0 0 0
191 3 -0.1276636178660614 33.51650543132691 13.050002470701058 22.437192125770682 0 0 0
192 3 -0.07849452370545043 34.43927595425774 13.720237984062287 21.888587411102254 0 0 0
131 1 0.06978201839552191 26.728271001284742 24.759370148007047 24.087069244198897 0 0 0
134 1 0.06942203003459453 26.92205763966818 22.28704428792737 24.85505022293004 0 0 0
136 2 -0.2595852264072112 28.869835484336427 23.021924976993706 24.101744239791895 0 0 0
137 1 0.1771512747011864 29.352118719464116 22.040647070030893 24.064989512637666 0 0 0
138 1 0.1114207489431046 28.540788279577704 23.261790271445 23.085175704757503 0 0 0
139 1 0.1237313029673602 29.639325001040767 23.75293168166267 24.371304924496428 0 0 0
195 3 -0.11032774231108 31.435322611600906 20.341279104477113 24.800304702843704 0 0 0
196 3 -0.1070000945600439 31.448791689617007 20.316305119187778 23.535147912005296 0 0 0
333 2 -0.2194245070565541 25.242605981961965 25.913092762601966 1.1039015180422136 0 0 0
334 1 0.09903394743354225 25.972269383433613 26.675003818267005 1.3980315135292023 0 0 0
342 1 0.0698540778072233 27.80938634364189 25.23882825916055 0.3543971556723697 0 0 0
335 1 0.09973454513183899 49.873610050729766 26.188142848883995 0.1101175235705257 0 0 0
336 1 0.1053450594452563 49.39827349356887 25.986651367816023 1.796361431899951 0 0 0
409 3 -0.07868086124457263 28.422362450875937 36.07547876133899 5.771119299712422 0 0 0
410 3 -0.08963625289315774 28.886637197770764 35.95307356779212 4.60053807765217 0 0 0
391 2 -0.1253745396585453 28.052967590209047 39.87412802947307 0.261218390915279 0 0 0
392 1 0.08867241066208018 28.74021811318072 39.54617406914592 1.0418251982527402 0 0 0
393 1 0.08159516841892567 28.309575980341826 40.917065527778796 0.07231658897509143 0 0 0
394 2 -0.09304981470017773 26.55043293157849 39.72038150061374 0.7112842212915611 0 0 0
395 1 0.07891669464265058 26.29885891856214 38.67541697666851 0.8979664713602852 0 0 0
397 2 -0.2244131240267621 26.378465563700157 40.58599240026445 2.013347642224048 0 0 0
398 1 0.1061304050890712 25.35329686480139 40.535405311433145 2.3932669097821124 0 0 0
399 1 0.1161571590424449 27.040580857363054 40.24680265474482 2.817036053946017 0 0 0
400 1 0.09255008066087199 26.60700171058313 41.641742825578056 1.8325257372107606 0 0 0
337 2 -0.09646447934910708 25.868835862839756 49.470141868359946 1.1151472398944837 0 0 0
338 1 0.07281122038279011 26.21057585460897 49.19774291311195 2.114631950797186 0 0 0
339 1 0.07258184396874784 25.126991362691797 48.717596745839394 0.8444349593074106 0 0 0
340 2 -0.111433215582065 27.064516624428123 49.48799593887834 0.08838527372950368 0 0 0
343 2 -0.09259849172470179 27.671574199400663 48.033960843563406 0.12069419291943372 0 0 0
345 1 0.08035926014621071 28.00631794906499 47.76801156991049 1.1243756490505357 0 0 0
403 3 -0.07763123479647666 43.16521545186061 29.734541702268295 8.819176003969764 0 0 0
404 3 -0.07662959444318754 43.65464215497696 29.572926123832374 7.66380502889742 0 0 0
322 1 0.07526878958569623 35.79812023160225 37.335513046021944 11.603022204808207 0 0 0
326 2 -0.09942488386486215 38.224306614605375 36.42808162131648 12.471990505796963 0 0 0
327 1 0.07517454969291898 37.83856584714158 35.89188879524453 11.60384961281307 0 0 0
329 2 -0.2215054315290424 39.79713116528766 36.45125078597929 12.471072903843737 0 0 0
330 1 0.1059837446937183 40.21078091354372 35.437988151579916 12.473534461053637 0 0 0
331 1 0.09939364612009892 40.19540997562979 36.96339599154745 11.588737219254885 0 0 0
316 2 -0.2235615606625351 35.67232208008569 39.36792406774005 12.47166177824571 0 0 0
318 1 0.1024980129088279 36.02443978452648 39.91539446498287 11.59094288226261 0 0 0
319 1 0.1040429629303328 34.57912964515146 39.42009686567409 12.47165905406625 0 0 0
320 2 -0.09844739518436488 36.17480507954232 37.877285102835536 12.471650666965354 0 0 0
323 2 -0.1118296725963817 37.75001470817606 37.931124875506384 12.471630578853473 0 0 0
324 1 0.07317126722613568 38.13211733054292 38.47133615789842 11.604809789431084 0 0 0
356 1 0.08284705211815513 26.04396602972312 37.44070143224277 17.566733070884403 0 0 0
321 1 0.07503827880586755 35.79814202118476 37.335521582040506 13.340291108712925 0 0 0
328 1 0.0782888446924262 37.8395818500022 35.892781375977144 13.341121230558437 0 0 0
332 1 0.1015305022237552 40.19638362732402 36.96808613903105 13.350224802509178 0 0 0
419 3 -0.08081044470607601 49.470560295808575 32.42220694394333 14.24987387277732 0 0 0
420 3 -0.0759313986291994 49.43182356592469 32.37103930203368 12.98636868341553 0 0 0
350 2 -0.2297871027369608 26.379016385323496 39.62860945281374 17.527551312649795 0 0 0
351 1 0.1122715331817822 26.08386041125293 40.52190819499868 18.088142160577405 0 0 0
352 1 0.1050927864454384 27.473796316177882 39.59971377018656 17.52254538470124 0 0 0
353 1 0.1131774033926392 26.052712084349984 39.771526843428944 16.492730575907785 0 0 0
354 2 -0.1146673581205169 25.763255622249925 38.320513419709656 18.147293698912033 0 0 0
317 1 0.1052195246082931 36.02444146320384 39.91541171176394 13.352354811751793 0 0 0
325 1 0.07420579495437264 38.13211691337549 38.47168716986171 13.338233434124044 0 0 0
355 1 0.1001736592905953 49.67308368542325 38.35026861557038 18.12469665296548 0 0 0
415 3 -0.08258216619830352 28.452378600819483 44.931353370419465 16.389571796871945 0 0 0
416 3 -0.08340572351847864 27.86285688056828 44.60259977535921 15.319490386488095 0 0 0
418 3 -0.08029832285099955 37.06600178981094 46.16490656843629 14.242315191671768 0 0 0
417 3 -0.0763889465675836 37.85000148562276 46.95277874405178 13.638015549245784 0 0 0
372 1 0.1016296755368841 34.5763379532708 31.011187870052357 22.33023261234318 0 0 0
411 3 -0.1313177210460656 36.939992932583905 29.941193002368877 20.860357965311007 0 0 0
412 3 -0.09688681756095666 37.98777083321956 30.477836355575086 20.395686205421875 0 0 0
360 2 -0.1290346195072981 25.669194474206503 36.9081593856351 20.220166051454182 0 0 0
361 1 0.08731921315611824 25.949597149709057 36.034200886745616 19.63079724217136 0 0 0
363 2 -0.189210247159892 26.19101193449655 36.78563385479378 21.698996276880752 0 0 0
364 1 0.1012567146041572 25.793666560392484 35.89114942442983 22.189064801516462 0 0 0
365 1 0.06163042357800816 27.283786517845908 36.72158952546873 21.740629730054014 0 0 0
381 1 0.08587663933456181 30.818207113028457 34.06519584040315 21.717968432598788 0 0 0
367 2 -0.2882743741799512 36.416756079546786 32.16464069247682 22.760171154922666 0 0 0
368 1 0.2087011297326284 36.74859914769207 32.28342002869107 21.72353042212891 0 0 0
369 1 0.1269410129464346 36.721544363448395 33.06621472178416 23.300581457326967 0 0 0
370 1 0.1595332618676991 36.97500603640866 31.324818100544757 23.185421392322194 0 0 0
371 2 -0.09343337553411167 34.86485760888287 31.925174612942705 22.85163957330557 0 0 0
373 1 0.06295284148620529 34.54924526700401 31.783217511671886 23.886412388945335 0 0 0
374 2 -0.1389659847354849 34.17379473698895 33.18901053347024 22.2126371391403 0 0 0
375 1 0.1026786699859477 34.45827849507197 34.105652225504414 22.730409987976365 0 0 0
376 1 0.1017782099236956 34.485379254159305 33.33538269155908 21.17792209933733 0 0 0
377 2 -0.09279206554839917 32.62399764933724 32.92245390903573 22.317836599377387 0 0 0
378 1 0.06797953732378965 32.31777147607072 32.77573294321167 23.35460634752219 0 0 0
379 1 0.0721960112436791 32.34489062401379 32.00481020207293 21.79797888257843 0 0 0
380 2 -0.2261813169813205 31.907084573360336 34.17214235150583 21.68657129522089 0 0 0
382 1 0.1203337417280033 32.15922870533307 35.09629323416361 22.21724862162733 0 0 0
383 1 0.1061380613129074 32.18994951431675 34.31622873133218 20.63839391561295 0 0 0
413 3 -0.09660906487645837 39.086279806741565 34.50805347383841 20.808107556319975 0 0 0
414 3 -0.07877644141737747 39.09441364572189 35.682138269218186 20.336514969967155 0 0 0
362 1 0.1379436598876496 49.57959814835811 36.94440500073737 20.189686739242998 0 0 0
407 3 -0.1186166940282417 46.90546048040253 36.54310300485048 19.823924203837233 0 0 0
408 3 -0.0749609108157154 45.76173312661837 36.61919750796072 20.359970676450224 0 0 0
357 2 -0.09883326518167374 26.300891490647466 38.223998577947874 19.625660177482285 0 0 0
358 1 0.05601778645413219 27.39082145755623 38.19351091303239 19.65425239770891 0 0 0
359 1 0.06556643043230893 26.022999134044756 39.10139610318217 20.210864064158166 0 0 0
366 1 0.07625110466329221 25.89592862741436 37.64764394598655 22.306702231581326 0 0 0
384 2 -0.2465596848802716 29.690070748907488 39.13328634354386 23.485725320612026 0 0 0
385 1 0.1333858311360604 29.95363550850669 40.17273857774803 23.263886611492634 0 0 0
386 1 0.1286185086327662 30.391580910623045 38.78007513839586 24.24879955298939 0 0 0
387 1 0.1047343362448615 29.8755521676802 38.55001516780648 22.578580375144533 0 0 0
388 2 -0.07615300755388033 28.19597572035325 38.998042860223926 23.958842361278652 0 0 0
389 1 0.04036219690021066 27.506056565905393 39.33016791089878 23.181840564524467 0 0 0
390 1 0.05010491573105233 27.938034397067085 37.95609637088088 24.15363205791052 0 0 0
396 1 0.06509633315655171 25.86748195473072 40.05000635829329 24.92701412894259 0 0 0
401 3 -0.1276633910113204 33.51650543132476 38.05000247070099 22.437192125770945 0 0 0
402 3 -0.07849437101774498 34.439275954256594 38.72023798406187 21.888587411102648 0 0 0
341 1 0.06978192689512228 26.728271001284703 49.7593701480071 24.087069244198833 0 0 0
344 1 0.06942200268819959 26.922057639668118 47.2870442879276 24.855050222929975 0 0 0
346 2 -0.2595852777545969 28.869835484336196 48.02192497699331 24.101744239792133 0 0 0
347 1 0.1771512723309414 29.35211871946438 47.04064707003146 24.064989512637496 0 0 0
348 1 0.1114207002067369 28.54078827957772 48.261790271445115 23.085175704757322 0 0 0
349 1 0.1237312517762208 29.639325001040927 48.752931681662815 24.37130492449641 0 0 0
405 3 -0.1103276509704121 31.43532261160041 45.34127910447629 24.80030470284356 0 0 0
406 3 -0.1070000117472636 31.448791689616577 45.31630511918701 23.53514791200555 0 0 0

Velocities

18 0 0 0
19 0 0 0
27 0 0 0
20 0 0 0
21 0 0 0
94 0 0 0
95 0 0 0
76 0 0 0
77 0 0 0
78 0 0 0
79 0 0 0
80 0 0 0
82 0 0 0
83 0 0 0
84 0 0 0
85 0 0 0
22 0 0 0
23 0 0 0
24 0 0 0
25 0 0 0
28 0 0 0
30 0 0 0
88 0 0 0
89 0 0 0
7 0 0 0
11 0 0 0
12 0 0 0
14 0 0 0
15 0 0 0
16 0 0 0
1 0 0 0
3 0 0 0
4 0 0 0
5 0 0 0
8 0 0 0
9 0 0 0
41 0 0 0
6 0 0 0
13 0 0 0
17 0 0 0
104 0 0 0
105 0 0 0
35 0 0 0
36 0 0 0
37 0 0 0
38 0 0 0
39 0 0 0
2 0 0 0
10 0 0 0
40 0 0 0
100 0 0 0
101 0 0 0
103 0 0 0
102 0 0 0
57 0 0 0
96 0 0 0
97 0 0 0
45 0 0 0
46 0 0 0
48 0 0 0
49 0 0 0
50 0 0 0
66 0 0 0
52 0 0 0
53 0 0 0
54 0 0 0
55 0 0 0
56 0 0 0
58 0 0 0
59 0 0 0
60 0 0 0
61 0 0 0
62 0 0 0
63 0 0 0
64 0 0 0
65 0 0 0
67 0 0 0
68 0 0 0
98 0 0 0
99 0 0 0
47 0 0 0
92 0 0 0
93 0 0 0
42 0 0 0
43 0 0 0
44 0 0 0
51 0 0 0
69 0 0 0
70 0 0 0
71 0 0 0
72 0 0 0
73 0 0 0
74 0 0 0
75 0 0 0
81 0 0 0
86 0 0 0
87 0 0 0
26 0 0 0
29 0 0 0
31 0 0 0
32 0 0 0
33 0 0 0
34 0 0 0
90 0 0 0
91 0 0 0
228 0 0 0
229 0 0 0
237 0 0 0
230 0 0 0
231 0 0 0
304 0 0 0
305 0 0 0
286 0 0 0
287 0 0 0
288 0 0 0
289 0 0 0
290 0 0 0
292 0 0 0
293 0 0 0
294 0 0 0
295 0 0 0
232 0 0 0
233 0 0 0
234 0 0 0
235 0 0 0
238 0 0 0
240 0 0 0
298 0 0 0
299 0 0 0
217 0 0 0
221 0 0 0
222 0 0 0
224 0 0 0
225 0 0 0
226 0 0 0
211 0 0 0
213 0 0 0
214 0 0 0
215 0 0 0
218 0 0 0
219 0 0 0
251 0 0 0
216 0 0 0
223 0 0 0
227 0 0 0
314 0 0 0
315 0 0 0
245 0 0 0
246 0 0 0
247 0 0 0
248 0 0 0
249 0 0 0
212 0 0 0
220 0 0 0
250 0 0 0
310 0 0 0
311 0 0 0
313 0 0 0
312 0 0 0
267 0 0 0
306 0 0 0
307 0 0 0
255 0 0 0
256 0 0 0
258 0 0 0
259 0 0 0
260 0 0 0
276 0 0 0
262 0 0 0
263 0 0 0
264 0 0 0
265 0 0 0
266 0 0 0
268 0 0 0
269 0 0 0
270 0 0 0
271 0 0 0
272 0 0 0
273 0 0 0
274 0 0 0
275 0 0 0
277 0 0 0
278 0 0 0
308 0 0 0
309 0 0 0
257 0 0 0
302 0 0 0
303 0 0 0
252 0 0 0
253 0 0 0
254 0 0 0
261 0 0 0
279 0 0 0
280 0 0 0
281 0 0 0
282 0 0 0
283 0 0 0
284 0 0 0
285 0 0 0
291 0 0 0
296 0 0 0
297 0 0 0
236 0 0 0
239 0 0 0
241 0 0 0
242 0 0 0
243 0 0 0
244 0 0 0
300 0 0 0
301 0 0 0
123 0 0 0
124 0 0 0
132 0 0 0
125 0 0 0
126 0 0 0
199 0 0 0
200 0 0 0
181 0 0 0
182 0 0 0
183 0 0 0
184 0 0 0
185 0 0 0
187 0 0 0
188 0 0 0
189 0 0 0
190 0 0 0
127 0 0 0
128 0 0 0
129 0 0 0
130 0 0 0
133 0 0 0
135 0 0 0
193 0 0 0
194 0 0 0
112 0 0 0
116 0 0 0
117 0 0 0
119 0 0 0
120 0 0 0
121 0 0 0
106 0 0 0
108 0 0 0
109 0 0 0
110 0 0 0
113 0 0 0
114 0 0 0
146 0 0 0
111 0 0 0
118 0 0 0
122 0 0 0
209 0 0 0
210 0 0 0
140 0 0 0
141 0 0 0
142 0 0 0
143 0 0 0
144 0 0 0
107 0 0 0
115 0 0 0
145 0 0 0
205 0 0 0
206 0 0 0
208 0 0 0
207 0 0 0
162 0 0 0
201 0 0 0
202 0 0 0
150 0 0 0
151 0 0 0
153 0 0 0
154 0 0 0
155 0 0 0
171 0 0 0
157 0 0 0
158 0 0 0
159 0 0 0
160 0 0 0
161 0 0 0
163 0 0 0
164 0 0 0
165 0 0 0
166 0 0 0
167 0 0 0
168 0 0 0
169 0 0 0
170 0 0 0
172 0 0 0
173 0 0 0
203 0 0 0
204 0 0 0
152 0 0 0
197 0 0 0
198 0 0 0
147 0 0 0
148 0 0 0
149 0 0 0
156 0 0 0
174 0 0 0
175 0 0 0
176 0 0 0
177 0 0 0
178 0 0 0
179 0 0 0
180 0 0 0
186 0 0 0
191 0 0 0
192 0 0 0
131 0 0 0
134 0 0 0
136 0 0 0
137 0 0 0
138 0 0 0
139 0 0 0
195 0 0 0
196 0 0 0
333 0 0 0
334 0 0 0
342 0 0 0
335 0 0 0
336 0 0 0
409 0 0 0
410 0 0 0
391 0 0 0
392 0 0 0
393 0 0 0
394 0 0 0
395 0 0 0
397 0 0 0
398 0 0 0
399 0 0 0
400 0 0 0
337 0 0 0
338 0 0 0
339 0 0 0
340 0 0 0
343 0 0 0
345 0 0 0
403 0 0 0
404 0 0 0
322 0 0 0
326 0 0 0
327 0 0 0
329 0 0 0
330 0 0 0
331 0 0 0
316 0 0 0
318 0 0 0
319 0 0 0
320 0 0 0
323 0 0 0
324 0 0 0
356 0 0 0
321 0 0 0
328 0 0 0
332 0 0 0
419 0 0 0
420 0 0 0
350 0 0 0
351 0 0 0
352 0 0 0
353 0 0 0
354 0 0 0
317 0 0 0
325 0 0 0
355 0 0 0
415 0 0 0
416 0 0 0
418 0 0 0
417 0 0 0
372 0 0 0
411 0 0 0
412 0 0 0
360 0 0 0
361 0 0 0
363 0 0 0
364 0 0 0
365 0 0 0
381 0 0 0
367 0 0 0
368 0 0 0
369 0 0 0
370 0 0 0
371 0 0 0
373 0 0 0
374 0 0 0
375 0 0 0
376 0 0 0
377 0 0 0
378 0 0 0
379 0 0 0
380 0 0 0
382 0 0 0
383 0 0 0
413 0 0 0
414 0 0 0
362 0 0 0
407 0 0 0
408 0 0 0
357 0 0 0
358 0 0 0
359 0 0 0
366 0 0 0
384 0 0 0
385 0 0 0
386 0 0 0
387 0 0 0
388 0 0 0
389 0 0 0
390 0 0 0
396 0 0 0
401 0 0 0
402 0 0 0
341 0 0 0
344 0 0 0
346 0 0 0
347 0 0 0
348 0 0 0
349 0 0 0
405 0 0 0
406 0 0 0
